##TITLE=HMDB0000251, Experimental spectrum with assignments
##JCAMP-DX=4.24
##ORIGIN=UNKNOWN
##OWNER=UNKNOWN
##DATA TYPE=LINK
##DATE=22/03/03
##TIME=15:05:00
##LONG DATE=2022/03/03 15:05:00 
##TITLE=Taurine
##JCAMP-CS=3.7
##ORIGIN=UNKNOWN
##OWNER=UNKNOWN
##DATE=22/03/03
##TIME=15:05:00
##BLOCK_ID=1
##CROSS REFERENCE=NMR PEAK ASSIGNMENTS:BLOCK_ID=4
##LONG DATE=2022/03/03 15:05:00 
##MOLFORM=C2 H7 N O3 S
##ATOMLIST=
1 N 0
2 C 0
3 C 0
4 S 0
5 O 0
6 O 0
7 O 0
8 H 0
9 H 0
10 H 0
11 H 0
12 H 0
13 H 0
14 H 0
##BONDLIST=
1 2 S
2 3 S
3 4 S
4 5 D
4 6 D
4 7 S
1 8 S
1 9 S
2 10 S
2 11 S
3 12 S
3 13 S
7 14 S
##$MOLFILE=
     RDKit          3D

 14 13  0  0  0  0  0  0  0  0999 V2000
    2.1431    0.5399   -0.2962 N   0  0  0  0  0  0  0  0  0  0  0  0
    0.9281    0.1177    0.3959 C   0  0  0  0  0  0  0  0  0  0  0  0
   -0.0975   -0.1655   -0.6850 C   0  0  0  0  0  0  0  0  0  0  0  0
   -1.6302   -0.6907    0.0332 S   0  0  2  0  0  6  0  0  0  0  0  0
   -1.3980   -1.9274    0.8267 O   0  0  0  0  0  0  0  0  0  0  0  0
   -2.6505   -0.8835   -1.0445 O   0  0  0  0  0  0  0  0  0  0  0  0
   -2.1758    0.5450    1.0262 O   0  0  0  0  0  0  0  0  0  0  0  0
    2.3671    1.5266   -0.0184 H   0  0  0  0  0  0  0  0  0  0  0  0
    2.9265   -0.1184   -0.1669 H   0  0  0  0  0  0  0  0  0  0  0  0
    0.5642    0.8739    1.1088 H   0  0  0  0  0  0  0  0  0  0  0  0
    1.1888   -0.8107    0.9423 H   0  0  0  0  0  0  0  0  0  0  0  0
    0.2915   -1.0455   -1.2628 H   0  0  0  0  0  0  0  0  0  0  0  0
   -0.1987    0.6620   -1.3902 H   0  0  0  0  0  0  0  0  0  0  0  0
   -2.2585    1.3764    0.5011 H   0  0  0  0  0  0  0  0  0  0  0  0
  1  2  1  0
  2  3  1  0
  3  4  1  0
  4  5  2  0
  4  6  2  0
  4  7  1  1
  1  8  1  0
  1  9  1  0
  2 10  1  0
  2 11  1  0
  3 12  1  0
  3 13  1  0
  7 14  1  0
M  END

##END=
##TITLE=Spectrum
##JCAMP-DX=5.01
##ORIGIN=UNKNOWN
##OWNER=UNKNOWN
##DATA TYPE=NMR SPECTRUM
##BLOCK_ID=2
##CROSS REFERENCE=NMR PEAK TABLE:BLOCK_ID=3
##DATE=22/03/03
##TIME=15:05:00
##TEMPERATURE=25
##LONG DATE=2022/03/03 15:05:00 
##.OBSERVE FREQUENCY=500
##.OBSERVE NUCLEUS=1H
##.SOLVENT NAME=H2O
##.SHIFT REFERENCE=INTERNAL,DSS,58953.00,0
##XUNITS=PPM
##FIRSTX=10.80107
##LASTX=-1.205921
##MINX=-1.205921
##MAXX=10.80107
##XFACTOR=0.00017999999999851468
##NPOINTS=65536
##YUNITS=ARBITRARY UNITS
##FIRSTY=-1461090.0
##LASTY=-1021014.0
##MINY=-131152200.0
##MAXY=86066040000.0
##YFACTOR=2626607.2573015536
##XYDATA=(X++(Y..Y)), XYDATA $$ DIF
60006aJ%%%%%%%%%%%%j%%J%%j%%%J%%%%j%%%J%%%%j%%%J%%%%%%%%%j%%%%Jj%J%%%%J%%%%j%j%J
59931@%%%%%%%%J%j%%%%%%%%J%%%j%%%%%%%%%%%%j%Jj%%J%%%%%%%j%J%%%j%J%%%%%%%%%%%%%%j
59855aJ%%%%%j%J%%%%j%%Jj%J%%J%j%%%%j%J%%%%Jj%%%%%%%%%%%%%%%%J%%%%j%%%%%%%%%%%%%J
59780A%%%j%%%%%%%%%J%j%%%%j%J%%%%%%%J%j%%%%%%%%%%%%j%%%%J%%%%%%%%%j%%J%%%Jj%%%%J
59705A%%%%%%j%%%%%%%%J%j%%%%%%%%%%J%%j%%%%%%%j%%%J%%%%%%%%%j%%J%%%%J%%j%%Jj%%%j%
59629a%%%%%J%j%%%%%%%%%J%%%%%%j%%%%%%%J%%%%J%j%%%%%%%%%%%%%%%%%J%jJ%j%%%%J%%j%%%
59554@%%%%%%%%%%j%%J%Jj%%%Jj%%j%%J%%%J%%%%%%j%%%%J%j%%%j%%%%%%J%J%%%%j%j%%%%J%%%
59479@%%j%%%%%%J%%%%%%%%%%%%%j%J%%%%%%%jJ%%%%%%%%%%%%%%%%%%%%%%J%%%%%%%%%%j%%%%%
59403@%%jJ%%%%%%%%%%j%J%%%%%%%%%%%%%%%%%%%%%J%j%%%%%%%%%%%%%%%%%%%%%%%%%%%%%%j%%
59328a%%J%jJ%%%%%%%%%%%%jJJ%%%%%%%%%jJj%%%%%%%Jj%%%j%%%%J%%j%%J%%%%%%%%j%%%%%%%%
59253a%J%%%%%%%%%%%%%J%j%j%%%%%%J%%%%%%%%%j%%J%%%%%%%%%J%j%%%J%j%J%%%%%%%%%j%%%%
59177@%%%J%%j%%%Jj%%%%%%j%J%%%%%Jj%j%J%%%%%%%%%%%%%j%%%J%%%%%%%Jj%%%%j%%%J%%%%%%
59102@%%%%%%%%%%%%j%%%J%%%%%%%%%%%j%%%J%%%%%%J%j%%%%%%%Jj%%%%J%j%%%%%%%%%J%%%%%%
59027A%j%%%%%%J%jJ%j%jJj%%J%%%jJ%%%%%j%%J%%%%J%%%%%%%jJj%%%%J%j%%%%%%%%%%J%j%%%%
58951@%%%%J%%%%j%%%%%%%%%J%%%%%j%%%%%%%%%%%%%%%%%%%%%%%%J%j%%%%%%%%%j%J%%%%%%%%j
58876a%J%%%%%%J%j%%%%%%%%%%%%%%%j%J%%%%%%%%J%%%%%%%%%j%%%%%%%%%%%j%J%%%%%%j%JJj%
58801@j%%J%%%j%J%%j%J%%%%%%%jJ%%%%%%%%j%J%%%Jj%%%%%%%%%jJ%%%%%%J%%%%%j%%%%%J%%%j
58725@%%%%%%%%%%%%%%%%%%%%%%j%%J%%%%%J%%%%j%%%%%%%%%%%%%%%%%%J%%j%%J%%j%%%%%%%%%
58650@%%%%%J%%%%%%%%%%%%%%j%%%j%%%%J%%%j%J%%%%%%%J%%%j%%%%%J%%j%%%%%j%%%%JJ%J%%%
58575B%j%%%%%J%%j%%%%%%%j%%%%%%%%j%J%%%%%%%J%j%%j%J%%%%%%%%%%%%%j%J%%%j%%%Jj%%%J
58500@%%%%%%j%JjJ%%%%%%%jJ%%%%%%%%%%%%%%%%%%%%%%%%%%%%%%%J%%%j%%%j%%%%%%%%J%%%%%
58424@%%%%%%%%%%%%%%%%%%%%%%j%J%%%Jj%%Jj%%%%%%%%%jJ%%%%%%%%%%%J%%%%%j%%%%%%%%%j%
58349a%J%%%%%%%J%%j%%%%J%jj%%%J%%%J%%%%j%%%%%j%J%%%%jJ%%J%%%j%J%%%j%j%%J%%%%%%%%
58274@jJ%%j%%J%J%j%%%%j%%%%%%%%J%%%%%%%%%%%Jj%J%%%%%jJ%%%j%%%%%%%%%%%j%%%J%jJ%%%
58198@%%%%%%%%%%%%j%%%%%%%J%j%%%J%%%%%%%%%%%%%Jj%%%%%%jJ%%%%%%%%J%j%%j%%%%%%J%%%
58123@%%%%%%%%%%%%%%%%%j%%%J%%%%%%%%%%%%%%%%%%%%%J%%%%%j%%%Jj%Jj%%%j%%%J%%Jj%%%j
58048aJ%%%%%%%jJ%%%%%%%J%j%%%%%%%%%%j%%%%%%%%%%J%%%%%%%%%%%%%%%%%%%%%%%%%%J%%%%%
57972Aj%%%%%%%%%%%%%J%%%%%%j%%%%%%%%%%%%%Jj%Jj%%%%%%%jJ%%%%%%%%%%%%%%%%j%%%J%%%%
57897@%J%%%j%%%%J%%%j%jJ%%%jJ%%%%%%%%%%%%%%%%%%%%%%%%%%%%%%%Jj%%%%%%%%%j%J%%%J%j
57822@%j%jJ%%%Jj%%J%%%%%%%%%J%%%%j%%%%%%%%%%J%%j%%%%%%%%%%%%%j%%J%%%%%%%%%%%%%%%
57746@%%%%%%%%j%%J%%%Jj%%%%%%%%%%%J%j%j%J%%%%%%%%%%%%%%%%%%%%%%%%%%j%%%%J%%%%%%%
57671@%%%%%%%%%%%%%%%%%%%%j%%%%J%%%%%%%J%j%%%%%%%j%J%%%%%J%%%j%%%%%%%%J%%%j%J%%%
57596A%%%%%%%%%j%%%%j%J%%%%j%J%%%%%J%j%%%%j%J%%%%%%%%%%%%%%%%%%%%%%%%%%%%%%%%J%%
57520AjjJ%J%j%%%%%%%%%%%j%J%%%%%%%%%%%%%%%%%%%%%%%jJ%%%%%%%%%%%%%%%%j%J%%j%%%%%%
57445aJ%%Jj%%%j%%%%%%%%%J%%%J%j%%%%%%%%%%%%%J%%%%%j%%%%%%%%%%J%%jJ%j%%%%j%J%%%%%
57370@%%%%%%%%%%%%%%%%%%%%%%%%%%j%J%%%%%%%%%%%%%j%%J%%%%J%j%%%J%%%j%%%J%j%%%J%%%
57294Aj%%%%%%%%%%%%%jJ%%%%%%%%%J%%%%j%%%%%%%%%%%%%%%%%%%%%%%%%%%J%%%j%%%%%%J%j%%
57219@%%%jJ%%%%%%%%%%%%%%%%%%%j%%J%%%j%%%%%%%%%%J%%%%%%%%JjJ%j%%%%%%%%%%%%%J%%%%
57144A%%%%%j%%%%%%jJ%%%j%%%%%%%J%%%%%j%%J%%%%%%J%%%%j%%%%%J%%%%%%%j%%%Jj%%j%%%%%
57068aJ%%Jj%%%%%%%%j%J%%%%%%%J%%%%%%%j%j%%%J%%%%%%%%%%%j%J%%%%%%%%%%%J%%j%%%%%j%
56993aJ%%%%%J%j%j%J%%jJ%%%%%%%J%%%%%%%j%%%%%%%%%%%j%%J%%%%%%%%%%%%%%%J%%%j%%jJ%%
56918@Jj%%%J%%%j%j%%%J%%%%%%%J%%j%%%%%%J%%%j%%%%%%%%%%%%%%%%%%%%%%%%%%%%%%%%%%%j
56842aJ%%%%%%J%%%%%%j%%%%%jJ%%%%%%%%%%%%%J%%%%j%%%%%%%%j%J%%%%%J%%%%%j%%%%%%%%%j
56767aJ%%%%%%%%%j%%%J%%%%%%%%%%%%%%j%%%J%%%%%%%%%%jJ%%%%%j%%%%%%%%%%J%Jj%%%%%%%%
56692@%%%%Jj%%%%%%%%%%%%%%%%%%%jJj%%%%%%%%%J%%%%%%J%%%j%%j%%J%%%%%%%%jJ%%%%%%%%%
56616@%%%%%%%%Jj%%%%%J%j%%%j%%%%%%J%%%%%%%%%%%%%%J%j%jJ%%%%%j%%%%J%%%%%j%J%%%%%%
56541@Jj%%j%%J%%%jJ%J%%%%j%%%%%%%%J%j%%%%%%%%%%%%J%%j%%%%Jj%%%%J%%%%j%%%%j%J%%%%
56466@%%%%%Jj%%%%%%Jj%%J%%j%%%%%%%%%%Jj%%%%%%%%jJ%%%%%%%%%%%%%%%J%%j%%%%%%%%%%%%
56391@%%%%%%%%%%%%%%%%j%%%J%%%%j%J%J%j%%%%%%%%%%J%%j%%%%%%%%%%%%%jJ%%%%%%%%%%%J%
56315A%%%%j%%%%%%%%%%j%J%%%%%%%%%jJ%j%%%%Jj%%J%%j%%%%%J%%%%%%%%%%%%%%%%%%%J%j%%%
56240@%%%%%%%%%%j%J%%%%%%%%J%%%%%%%j%%%%%j%%JjJ%%%%%%%%%%%%%%%%%J%%%%%jJ%%%%%%%j
56165@J%j%%%%J%j%jJ%%Jj%%%%%%%%%%%%%%%%%%%%j%%%%J%%%%J%%%j%%%%%%%%jJ%%j%%%%%%%%%
56089aJ%%%%%%%%%Jj%%%%%%%%%J%%%j%%%%%%%%%%%%%%%J%%%%%%%%%j%%%%%%%%%jJ%%%%%%%%%%%
56014@%%%%%%%%%j%%Jj%%J%%j%%J%%%%jJ%%%%%%%%j%%%J%%%%%%j%%J%%%J%j%%%%%%%%j%%%%J%J
55939Aj%%%%%J%j%%%%%j%J%j%%%%%%J%%%%%%%%%%%%J%%j%%%%jJ%%%%%%%%%%%%%%%%%%%%%%%%%%
55863@%%%j%JjJ%%%J%%%%%j%%%%%%%%%%%Jj%%%%%jJ%%%%%%J%j%%J%%%j%%%%%%%%%%%%%%%%%%%J
55788A%j%%jJ%%%%%J%j%%%%%%%j%J%%%j%%J%%%%%%%%%%%%%%%%%%%Jj%%%%j%J%%%%%%%%%%%%%%%
55713@%%%j%%%%%%J%j%%J%%%%%%%%%jJ%%%%%%%%%J%j%%j%J%%%j%J%%%J%%j%J%%j%%%%%J%j%%%%
55637@%%%%%%J%%%%%%j%%%J%%j%%J%j%%J%%%j%%%%%%%%%%%%%%%%%%%%%%%%%%%%%%%%%%%%%Jj%%
55562@J%%j%%J%%%%%j%%%%%%%%%%%j%%J%%%%%%%J%%%%j%j%%%Jj%%J%%%%%%%%%%J%j%%%%%%%%%%
55487@%%J%j%J%%%%j%%%%%%%J%j%j%J%%j%%%J%%%%%%%%%%%jJ%%%%%%%%%%%%%Jj%%%%%%%%%%%%j
55411a%J%%%%j%%%%%%J%%j%%%J%%j%J%j%%J%Jj%%%%%%%%%%J%%j%%%j%%%J%%%%%%%%%%%%%%%%j%
55336a%%J%%%%%%%%%j%%J%%%%%%%%%%%%%%Jj%%%%%%j%J%%%J%%%%jj%%J%%%j%%%%%%%J%%%%%%%%
55261@%%%%%%%%J%j%%%%%%%J%j%%J%j%%%%%j%%J%%%%%j%%%%%%%%%%%%J%%%%J%%%%j%%%%%%%%%%
55185@J%j%%jJ%J%j%%jJ%%%%%%%jJ%%%%%J%j%%%%%%%Jj%%%%J%j%%%%J%j%%%%%%%%%%%%%J%%%%%
55110A%j%%%%%%%%J%%%%j%%jJ%%%%%%%%%%%%j%%J%%%%%%%%%%%%%%%%%%%J%%j%%%%%%%%%%%%%J%
55035Ajj%%%%%%%%%%J%%jJ%%%%%%%%%%jJ%%%%%j%%J%%%%%%%%Jj%%%%%%%j%J%%%%%%%%%%%jJ%%%
54959@%%%%%%%%%jJ%%%J%j%%%%%%%%%J%%%%%j%%%%%%%J%%%%%%%%j%J%j%%%J%%j%%%%%%%%%%%%%
54884@%%%%%j%%%%%%%Jj%J%%%j%J%%%%%%%%%%%j%J%%jJjJ%%%%%%%%%Jj%%%%%%jJ%%j%J%%%%%%%
54809@%%%%%Jj%%%%%%%%%%%%%%%%%%%%J%j%%%%%%%%%%%J%%%j%%%%J%%j%%%%%%%%%%J%%%%%%%j%
54733@%%%%%%%%J%%%%%j%%%%%%%%%%%%%%%%%j%%%%J%%%%%%%%%%%%%%%%%%j%%%%%%%J%%%%%%%%%
54658@jJ%%%%j%J%%%%%%%%%%%%%%%%%%%%%%%%%%%J%%%j%%%%jJ%%%%%%%%%%%%%%%%%%J%%%%jJj%
54583@%%J%jj%%%%J%%%%%J%%%%%j%%%%%%%%%%%%J%j%%%%%%%%%%%%%%%%%%%%%%%%%%j%%%Jj%J%%
54507@%%%%%%Jj%%%%%%%%%%j%J%%%%%%%%%%j%JjJ%%%j%J%%%%%%%%%%%%%%%%j%%J%%%%Jj%j%%J%
54432@%%%%%j%%%J%%j%J%%%%%%%%%%%%%%%%%%%%%%%%%%%%J%%j%%%%%%%%%%%%%Jj%%%%j%J%%%%J
54357A%%%j%%%%%%%%%%%%%Jj%%%%%%%%%%j%J%%%%%%%%%%%%%%%%jJ%%%%%J%%%%%j%%%%J%j%%%%%
54281@%%%%%%%%%%%%%J%j%%%%%%%%%J%%%%%%j%%%%%%%%%%%%J%j%%%%%%%%%%%%%%%%%%%%%%%%%j
54206a%J%%%j%%J%%%j%J%%%%%%%%%%Jj%Jj%%%%J%%%j%%%%%%%J%j%%%%%%%%j%%J%%%%%j%J%%j%%
54131aJ%%%Jj%%%j%%J%%%%%%%%%%%%%%J%%%%j%%J%j%%%%%%%%%%J%%j%%%%%%%%jJj%%J%%%%j%%J
54056@%%%%%%%%%%%J%j%%%%%%J%%%%%j%%%j%%J%%%%%%%%%j%%J%%%%%%%%%%%%%%%%%%%%%%j%%%J
53980@%%%%%%%%%j%J%%%%%%%%%%%%%%%%%%%j%J%%%jJ%%%%%%J%%%%%%j%%%%%J%%%%%j%%%%%%%%%
53905@%%%%%%j%%J%%%%%%%%jJ%%%%j%J%%%%%%%%%Jj%%%j%%J%%%Jj%%%%j%%%%%%J%%J%%j%%%%%%
53830@%%J%%%j%%j%%jJ%%%JJ%j%%%%%%%%%%%%%%%%%%%%%%%%%%%%%%%%%%%j%J%%%%%Jj%jJ%%Jj%
53754@%%%%%%%%%%%Jj%%%%%%%%%%%J%%%%%%j%%%%Jj%Jj%%%%%j%%%%%%J%%j%%%%%%J%j%%%J%%%%
53679@%%%%%%%%%%%%%%%%%%%%j%J%%j%J%%Jj%%J%%Jj%%jj%J%%Jj%%jJ%j%%%%%%J%%%%%%%%j%%J
53604@%%%%%%Jj%%%%%%%%%%%%%%%%%%%jJ%%%%%%%%%%%%%J%%%%%j%%%J%j%%%%%%%%%%%%%j%%%%J
53528@%%J%%%%j%j%%%%%%%%J%%%%%JjJ%%j%%%Jj%%%%%%J%j%%%%Jj%%%%%%%%%jJjJ%j%JJ%%j%%%
53453@%J%%%%%j%%J%%%j%%%%J%%jJ%j%%%Jj%%%%%%j%%%J%%%%%%J%j%%j%%%J%%%%%jJ%%J%%j%%j
53378a%%%%J%%%%%%%%%%%%%%%%%%%%%%%%%%%J%%%%%%%%%%%%j%%%%%%%%%%%%J%j%%%%%%%%%%%%%
53302@%%%%%%Jj%Jj%%%jJj%%%%%%%%%J%%J%j%%%%%%%%%%%%%j%%%%%J%%%%%%%%%%j%%%J%%%%%%%
53227@%%%jJ%%%%%%%%%%J%%%j%%%j%J%%%%%%%%%%%%J%%j%%%%j%J%%%%j%J%%%%J%%j%%%%%%%%%%
53152@%%%%%%%%%%%%%%%%%%j%%%J%%%%%%j%%%%%%%%J%%%%%%%%%%%%%j%J%%%%%%%%%jJ%%%Jj%%%
53076@J%j%%%%%Jj%%J%j%%%j%%%J%%%%%%%%%%%%%%Jj%%%%%%%%%%%%%J%%j%%%%%%%J%%%%%%j%%%
53001@%%%%%%%%%%%%%%%%%%%j%J%jJ%%%%j%J%%%%%%%%%%%%%%j%J%%%%%%%%%%%J%%%%%%%jjJ%%%
52926@%%%%%%%%%%%%%%%%%%%%%J%%j%%%%%%%%Jj%%%%%%%%%%%%%Jj%%%%%%J%j%%%%%%j%J%%%%%%
52850@%%%%%%J%j%%%%%jJ%%%%%%%%%%%%%%%%%%%%%%%%%%%%%%%%%%%j%%%%J%%%%jJ%%%%J%j%j%%
52775aJ%%%%Jj%%%%%%%%J%j%%%%%j%J%%%%%jJ%%%j%%%J%%jJ%%%%%%J%j%%j%%%%JjJ%%%%%%%%%%
52700@%%j%JJ%%j%%%%%%%%%%%%%%%J%%%%%%%j%%%%%%%%%%j%J%j%J%%%%%J%%j%%%%%%%%%%%%%%%
52624@%%%%%%%%%%%%%j%%J%%%%%%%%%%%%%%%%%%%%%%%%%%%%%%%%%%%%%%%%j%%Jj%%%%%%%%J%j%
52549a%%%J%%J%j%%%%J%j%%%%%%%%%%%%%%%J%%j%%%%%%%%%%%%%%%%%%%%%j%%%J%%%%%%%%%%%j%
52474a%%%J%%Jj%%%j%%%%%J%%%%%%%%%%%%%J%j%%%%%%%%jJ%%%%%%%%J%%j%%%%%%%%Jj%%%%%%%%
52398@%%%%%j%%%J%%%%%%%j%%J%%%%%%%%%%%%%%%%%%%%%%J%j%%%%%%j%%%%J%%%%%J%j%%%%%%%%
52323@J%%%j%%%%%J%%j%%%%%%%%j%%Jj%%%J%%%%%%%%%%%%%%%%%%%%%%%%%%%%%%%%%%%%%%%%%%%
52248@j%%J%%%%jJ%%%Jj%%%%%%%%%%%J%%j%%jJ%%%Jj%J%j%%%%%%%%J%%%j%%%%%%%%Jj%%%%%%%J
52172Aj%%J%%%%%j%%%%%%%%%%%%%%%%%%%%%%J%%%j%%%%%%%%%j%%%%JJ%j%%%%%%%%%%%%J%%%%%%
52097A%%%j%%%%j%J%%%Jj%%%%%%J%%%%%%%%%%j%%%Jj%%%%%%%%%%%%%%%%j%%%%%%%%Jj%J%%%%%%
52022@%%%%j%%J%%%%%j%%%%J%%%%J%%%%j%%%%%%%J%%%%%j%%%%%j%J%%%%j%%%%J%%%J%j%%%%%J%
51947Aj%%%%%%J%%%%jJ%%%%%%j%%%%%%%%%%%%%%%%%%%%%%%%%%%%%%j%%%%J%%%J%%%j%%%%%%%j%
51871a%%J%%%%%j%%%%%%J%%%%%%%%jJ%%%J%%%%%%j%%%%%%%%J%%%j%%%%j%%J%%%%J%j%%j%%J%j%
51796a%Jj%%%%J%J%%%%%%j%%%%%%%%j%%%J%%%%%%%%%%%%%%%%%%%%%%%%%%J%j%%%%%%%J%jj%J%%
51721@%%%jj%J%Jj%J%%%%%%J%j%%%%%J%j%%%J%%%%%%%j%%%%%%J%%%j%%%%%%%%jJj%%%%%%%%%J%
51645@%%%%%%%%%%%%%%j%%%%%J%%%%%%%%%%%j%%J%%%%%%%%j%%%%J%%%jJj%%%%J%j%J%%%%%j%%J
51570@%%%%%jJ%%J%j%%%%%%%%J%%%%j%jJ%%%J%j%%%%%%%%%%%J%j%%%J%%%j%%J%j%%%%%%%%%%%%
51495@%%%%%J%%%%%%j%%%%%%J%%j%%%Jj%j%J%%%%Jj%%%j%J%%%%J%j%%%%%%%%j%%J%%j%J%%%%%%
51419@%%%%%%%%%%Jj%%%%%%%%%%%J%%%%%%%j%%%%%%%J%j%%%j%J%%%%Jj%%j%%%%%%J%%%%%%%%%J
51344A%%j%%%J%%%j%%%Jjj%J%%%%%%jJ%%%%%%%%%%%%J%%j%%Jj%%%%%%%%%%%%%J%j%%%%%%J%%%%
51269A%%%j%%%%%%%%%%%Jj%j%%%J%%%%%%%%%%%%%jJ%%%%%%J%%%j%%%%J%j%J%%%%%%j%%%%%%%%%
51193@%%%j%%%%J%%%J%%j%%J%jJ%%%%%%%%%%%j%%%J%%j%%%%%%%%%%%%%%%%%J%Jj%%j%Jj%%%%%%
51118@%%%%%%j%%J%%%j%%%J%%%%%J%%%%j%%%%J%%%%%%%j%%%%%%%%%%%%%%%%%%%%%%%%%%%%%%%%
51043@%%j%J%%%%J%%j%%%%%%%%jJ%%%%%%%%%%%jJ%%J%j%%J%%%%j%%%%%J%j%%%%%%%%%%%%%%%%%
50967@%%%%%%%J%%j%%%%%%%%%%J%%jJj%%%jJ%%%%%%%%%jJ%%%%%%J%%%%j%%%%%%%%%%%%jJ%%%%%
50892@%%%%%%%%%%%%j%%%J%%%j%%%J%%%%%%%%%%%%%%%%%%%%%%%%%%%%%%%%%j%%%J%%%%%%J%%j%
50817@%%J%j%j%%J%%j%J%%%%%%%%%%%J%j%%%%jJ%%%%%%%%%%%%J%j%%%%%%%%%J%%%%%%%j%%%%%%
50741@%%%j%%%%%%%%%%J%%%%%%%%%%jJ%%%%%%%%%%%%j%J%%%%%%%%%%%%jJ%%%%%%%J%%%j%%%%%j
50666a%%%J%%%%%j%J%%%%%%%%%%%%%%%%%%J%j%j%%%%%J%%%%%%%%%%%%J%%j%J%%%j%%%%%%%j%%J
50591@%%%%%%%%%%%%%%%%%%Jj%%%Jj%%J%%%%%%%j%%j%%%J%j%%J%%J%%%%j%%%%%%%%%%%%%%%%%%
50515@%%J%j%%%%%%%%%%%%%%%J%%%%%j%%%%%%%%%%%%%%%%%%%%Jj%%%J%j%%%%%%%%%%%%%%Jj%J%
50440A%j%%%%%%J%j%%%%%J%%jJj%%j%%J%%%%%%%j%%%%%%%%%%%%Jj%%%%%%%%%%%J%%%j%J%%%%%J
50365A%%%%%%j%%%%%%%%j%%J%%%%%J%j%%%%j%%%J%%%%%%j%%%%%J%%%%%%%%%%%%%%%%%%%%%%%%%
50289@%Jj%%jJ%%jJ%%%%%jJj%%%%J%%%j%J%%J%%%%%j%%%%j%%J%%%%j%%%%J%%%%%%%%j%%J%%%%%
50214@J%%j%j%J%j%%%j%%J%%%%%%J%%%j%J%%%%%%%%%%%%%%jJ%%%%%%%%J%%%%%%%%%j%%%%%%%%%
50139@%%%%Jj%j%%%%%%%%Jj%%%J%j%J%%jJ%%%%%%%%%%%%j%J%%%%%j%%%J%%%%%%%%%%%%%%%%%J%
50063A%%%%%j%%%J%%%j%%%%%%%%%J%%j%%%J%%j%%%%%%%%%%%j%%J%J%j%%%%%%%%%%j%J%%%%j%%J
49988@%%%j%%%%%%%%%J%%j%%%%%%%%J%%%Jj%jJ%%j%%J%%%%%%%%J%%%j%%%J%%%%j%%%jJ%%%%%%%
49913@%%%%J%%%%%%%%%j%%%%%%%%%J%%j%%%%%%%%%%%jJ%Jj%%%%%%%%%%%%%%j%%%%%J%j%%%J%j%
49838aJj%%J%%%%%j%%J%%%%j%%%%%J%%%%%%J%%j%%%J%%j%%j%%%%%%J%%%%jJ%%%%J%j%%%%%%%%%
49762@%%Jj%%%J%j%%%%%jJ%%%%%%%%j%%J%%%%%%%%%%%%%j%%J%%%%J%%%%%j%%J%j%%%%%J%%j%%%
49687@%J%%j%%j%%J%%%%%%%%%%%%%%%%%%%%%%%%%j%%%%J%%%%%%%%%j%%%J%%%%%j%%%J%%%%%jJ%
49612@J%%j%%%%%%Jj%%%%%J%j%%jJ%%%%%%Jj%Jj%%%%%%%%j%J%%%%%%%%%%%%%j%J%%%%jJ%%Jj%%
49536@%%%%%%%%%%%Jj%%Jj%%J%%%%%%j%%%J%%%%j%%%%jJj%%%%%JjJ%%%%jJj%jJ%J%%%%%%%%%%%
49461@%%%%%Jj%%%%%%%%%J%%%j%%%%%J%j%%%%%%%%%%JjJ%%%j%%J%%%%%%j%%%%%%Jj%J%jj%%%J%
49386@%%%%%%j%J%%%%%%%%%%%%%%%%%%j%%J%%%j%%%%%%%%%%J%%%%%%%j%%%J%%%%%J%j%%jJj%J%
49310@%%%%%%%%%%%%%%%%Jj%%Jj%%%%%%j%%%%%%%J%%%j%%%%J%%%%%%%%%jJ%%%%%%%%%%Jj%%%%%
49235@%%%%%J%j%%%%Jj%j%%J%%%%%%%%%%%%%%jJ%%%%%J%%%%%j%%%%%%%%%%%%%%%j%%%J%%%%%%%
49160@%%%jJJ%j%%%%J%%j%%%%%J%%%%%j%%%%%%%%%%Jj%%%%%%%%%%Jj%J%%%%%%jJ%j%%j%%%%%%%
49084a%%J%%%j%%%%%J%%%j%%%%J%Jj%%%%%%%%%%%%%%%%%%%J%%%%j%j%%%%%%%J%%%%%%j%%%J%%%
49009@%%%%%%%%%%%%Jj%%%%%j%J%%j%J%%%%%Jj%%%%%Jj%J%j%%%%%j%%%%J%%%%%J%%%j%%%%Jj%%
48934@%%%%%%%J%j%%%%%%%j%%%JjJ%%%%jJ%j%J%%%%%j%J%%%j%J%%%%J%j%J%%%%%%j%%%%%%%%%%
48858@%%%%%%%%%%%%jJ%%%J%j%J%j%%%%j%%%%J%%%%jJ%%%%%%%%%%%%jJ%J%%%j%%%%%%%%%%%%%J
48783A%%%%j%%%j%%J%%j%J%%Jj%%%jJj%%%%%%%%%%%%%Jj%J%J%j%%%J%%%%%%jJ%%j%%%%%%%%%%%
48708@%Jj%%%%%%j%%%%J%%%%%%%jJ%jJ%j%%J%%%%%%%%jJ%%%j%%J%%%%%%%J%%%%%%j%J%j%%j%J%
48632@J%j%Jj%J%%%%j%%%%%%j%%%%%J%%%J%j%%%%%%%%%%%J%%%j%%%J%j%%%%%%j%%%%%%J%j%%J%
48557@%%%%j%%%%%%%J%%%%%%%%%%j%%%%J%%%%%%j%J%%%%%%%%%%J%%%j%%%%%%Jj%%%%%%%J%%%%%
48482A%%%%%%%%%j%Jj%%%%%%%J%%%%j%%%j%J%J%%%%%%j%%%j%J%%jJ%%%%%%%%J%j%%j%%J%%%%%%
48406@%J%%%%j%%%%Jj%%J%%j%%j%%%%J%%%J%%%j%%%%%%%%%J%%%j%%%J%%%j%%%%%%%J%j%%j%%%%
48331a%J%%%%%%%%%%%%%%%%%%%%j%%J%%j%%%%%%J%%%%%%%%%%%%%%%%%%%%%%%%%j%%J%%%%%%%%%
48256@%%%%%j%%J%%%%%%%j%%%%J%%%%Jj%%%%%%%%J%%%j%%J%%%j%%%%%%%%J%j%%%%%J%%j%%%J%j
48180@%%J%%%%j%%%JJ%%%j%%%%%%%J%j%%%j%%J%%%j%j%%J%jJ%%%J%%j%%%%%%%%%%%%%%%%Jj%%%
48105@j%J%%%%J%j%%%%%%%%%%%J%%%%%%%%%%%%%%%%%%%%%%%j%%%%Jj%%%J%%j%%%j%%%%%%%J%%%
48030@%%%%%%%%%%J%j%j%J%Jj%%%j%%%%J%Jj%%%%%j%%%%J%%%%%j%%J%%%%j%%%%%J%J%j%%%J%%%
47954Aj%%%%%%%%%%%%%Jj%%%%%%%%J%%j%%%%%%%%%%%%%j%%%%J%%%%%%Jj%Jj%%J%%%j%%%%%%%%%
47879@%J%%%%%j%%J%j%%%%%j%%%J%%%%%%%%%j%%%%%J%%%%j%%J%j%%J%%%%%%Jj%%Jj%J%%j%Jj%%
47804@J%%j%%%%%%%%%%j%%J%%%%%%%%%%%%%%%%%%%%%%%%J%j%%%%%%jJ%%%%%%%%%%%%%%%J%%jJj
47729@%%%jJ%%%%%%%Jj%%%%%j%%%J%%%%%%%%%%%%%%%%%%%%%%%Jj%%%%%%%%%%%%%J%%%%%%j%%J%
47653Aj%%%%%%j%J%J%%%j%%%%j%%J%%j%J%%%%%jJ%%j%Jj%J%%j%%%%J%%%J%j%%%%%%%jJ%%%%%%%
47578@%%jJ%%%%%%J%%%%j%%%%%%%%%%%%%%%%%%%%%%%%%%%%%%%%%%%%%J%j%j%%%%%%J%%%%%%%%%
47503@%%%%%%%jJ%%%%%%%%J%%%%j%j%%J%jJ%%%j%Jj%%J%Jj%%%%%%%%%%%%j%%%%%%%%%%%%J%j%%
47427ajJ%J%%%%%%%%%j%J%%%J%j%%%%%%%%%%%%%%%%%%%%%%%%%%Jj%%%%J%%%%%%%%%%%j%%%%%%%
47352@%%%%%%%%%%%%%%%%%%%j%%J%%%%%%%J%j%%%%%%%%%%%%%%%%%%%%%%%j%%%%%%%%%JJj%jJ%%
47277@%%%%%%%%%%%%%%%%%%%%j%%%J%%%%%%%%%%%%%%%Jj%%%%%%%%%j%%%%J%%%%%%%%%%%%%%%%%
47201@J%%%%%%j%%%j%%%%%J%%%%%%%%%%%%%%%%jJ%j%J%%%%%%%Jj%%J%%%%j%%%%%J%%j%%%%%%%%
47126@jJ%%%%%j%%J%jJ%J%j%%%%%%%%%%%%%j%%%%%J%J%%j%%%%%%%%%%%%%%%%%%J%%%%%j%%%%J%
47051Aj%%%%%%%%%J%j%%%%%%%%%%%%J%%j%%j%%J%%%%%%%%%%%%%jJ%%%%%%%%%%%%%%%%J%%j%%%%
46975@%j%%%J%%%%%j%%%%%J%%%%%%%%%%%%%%%%%jJ%%J%j%%%%%%%%%j%%J%%%jJ%%J%j%%%%%%%%%
46900@%%%%%%%%%%%%%%%j%J%%%%J%%%j%%J%%%%j%J%%j%%Jj%%%%%%%%%%%%%%%%%%%%%%%%%j%J%%
46825@J%%%%%j%%j%J%%%%%%%%Jj%%%%%%%%%%%%%%%%%%%%%%%%%%%%J%%%j%%%%%j%%%%JjJ%%%%%%
46749@%%%%%%jJ%j%%%%%%%J%Jj%%%%%%%Jj%%J%%j%j%%%J%%%%%%%%%jJ%%%%%%%%Jj%%%%%%%%%%%
46674@%%%%%%%%%%%%%%%%%%j%%J%%jJ%%j%J%%%%%%%%%%%%%%%%%%%%%%%%%J%j%%%%%%%J%%%%%%%
46599A%%%%j%%jJ%%%%jJ%%%%%%%%%%%%%%%%%jJ%%j%%%J%%%j%%%%J%%%j%%J%%%%Jj%%%%jJ%%%%%
46523@%%%J%%%%%%j%%%%%%%%%%%%%%%%%%%%jJ%%%j%%%J%%%%%%%%%%%%%J%%%%%%%%%j%Jj%%%%%J
46448Aj%%%%%%%%%%J%%%j%%%%%%%%%J%%%%%%%j%%%%%%%%%J%%%%%%j%%%%%%%%%%%%%%%j%%J%%%%
46373@%%J%%%%j%%%%%%%%%%%%%%%%%%%%%%%%%J%j%%%%%%jJ%%%J%%%%j%%J%%%%%%%%%%%j%%%%%%
46297@%%%%%%%%Jj%%%%%%%%%%%%%%%j%%J%%%%%%%%%%%%J%%%j%%%%j%%%%J%%%j%%%J%%%%%%%%%%
46222@%%%%%%%%%%J%%%%j%%%%%J%%%%j%%%%%Jj%%j%%J%%%%%%%%%%%%%%jJ%%%%%%%%%%%%%%%J%%
46147A%%%j%%%%%%%%%%%%J%%j%%%%%%%%%%%%j%%J%%J%%j%J%j%%%%%%%j%J%%%%%Jj%%%%%%%%%%%
46071@J%j%%%%%%%%J%j%j%%%J%%%%J%j%j%%%J%%J%j%%J%%%%j%%%J%j%%J%j%%%j%%%J%%%%%%%%%
45996@%%%%%%%%%%%%%%%%%%jJ%%%%%%%%%%%%%%j%%%%%%J%%J%j%%%%J%%%j%%%%%%%%jJ%%%%%%%%
45921@%%%%J%j%%%jJ%%%%%%%%%%%%jJ%%%%%%%%%%%%%%%%%%%%%%%%%jJ%%%%%%%%%%j%Jj%%J%%%%
45845@%%%%%%%%%%%%%%%%%%%%%%%J%%j%%%%%%%%%%%%jJ%%%%%%%J%%%%j%%%%%%%%%%%%%%%%%%%j
45770a%%Jj%J%%%j%%%%J%J%j%j%%J%%%%%%%%%%%%%%%%jJ%%%%%%%Jj%%%%%jJ%%%%%%%%%%%%%%%%
45695@%%%%%%%%%%j%J%JJj%%%j%jJ%%%%J%j%%%%%%%%%%%%j%%%%%%%%%%J%%%%%%%%%j%J%%%%Jj%
45619@%%%%%%%%j%%%%%J%%%%%%%%%%%%%%%%%%%%%%J%j%%%%%%%%J%%%%%j%%%%%%J%%%%j%%%%%%%
45544@%%%%%%jJ%%%%%%j%J%%J%%%%%%%%%%j%%%%%%%%%%%%%%%%%%%%%%%%%%%%%%%%%%J%J%%j%%%
45469A%%%%%jJ%%%%j%%%%%%J%%j%%j%%J%J%%%jj%%%%%%%J%%%%%%%%j%%%%J%%%%%%%%%%%%j%JjJ
45394@%%%%%%%j%%%%%J%%%%%%%%%%%%%J%%Jj%j%%%%%%j%%%%%%%%%%%J%%%%%%%%%%%%%%%%Jj%%%
45318@%%%%%%%%%%%%%%%%%%%%%%%%%%%%%%%%%%%%%%%%%%%%j%J%%%%%%%%%%Jj%%J%j%%%%%%%%%%
45243@Jj%%%%%%%%%%%%%J%%j%%%%%%%%%%%%%%%%jJ%%%%%J%%%j%%%%%%J%j%%jJ%%%%%%%%%%j%%J
45168@%%j%%J%j%%%%J%%%%%%%%%%%%%j%J%%%%%%%%%%%%%%%%j%%J%%%J%j%%%%J%%%j%%%%j%%%%%
45092a%J%%%%%j%%%J%%%%j%%%%%J%%%%%%%%%%%%%%%J%j%%jJ%%%%%%%%%%%%%%%%%%%%%%%%%%%%%
45017@%%%%%J%j%%%%%j%%J%%%J%%%%j%%%%%%j%JjJ%%J%%%%j%%%%%%%%%%%%%%%%%%%%%%%%%%%%%
44942@%jJ%%%%%%%j%%%J%%%%%%%%%%%%%%%%%%%%J%%%%%%%%j%%%%%%%%%%%%%%%%%%%%%%%%%%jJ%
44866@J%j%J%%j%%j%J%%%%%%%j%%%jJ%%%J%%%%%J%%j%%j%%%%J%%%%J%%j%%%%jj%J%J%%%%%%%%%
44791@%%%j%J%%%%%%%%%j%J%J%j%Jj%%%%J%j%%%%%%%j%%%%%%%J%%%%%%%j%J%%%%%j%%%%%J%%%j
44716a%%%%%%%%J%%%J%%j%%%%%%%%%%%%%%j%J%%%%%%%%J%%%%%%j%J%%%j%%%%%%%%%%%%%%%%J%j
44640@%%%j%%%%J%%%%%j%%J%%%%%Jj%%%Jj%%%%%%%%%%j%J%Jj%j%%%J%%%%%jJ%%%%%%%%%%%%%%J
44565A%%j%%%%%%jJ%%%%%%%%%%%%%%%%%%J%j%J%%%%%%j%%%jJ%%%%%%%%%%J%%%%j%%J%j%%%%J%%
44490A%%%j%%%%%%%J%j%%j%%J%%Jj%%%%%%%%%%%%%%j%J%%%%%%%%%%%%%%%%%j%%J%%%%%%%%%%%%
44414@%j%%%J%%%%%%%%%%%%%%%%%%%%%%%%%%%%%%%%J%%j%%%jJ%%%%%%%%%J%j%%%%%%%%%%%%j%%
44339a%J%%%%jJ%%j%%J%%%%%%J%j%J%j%%Jj%%%%%%%%%%j%J%%%%%%%%%%%%%%%%j%%J%j%J%%%%%%
44264@%%%jJ%jJ%J%%j%%J%%%j%%%J%j%%%J%%j%%%%%%J%%j%%j%%J%%%%J%%j%%%%%%%%%j%J%%j%%
44188a%%%%%J%%%%%j%%%J%j%J%j%%J%%%%%%%j%%J%%%%%%%%%%%%%%%jJ%%%%%jJJ%j%%%%%%%%%%%
44113@JjJ%j%%%%%%%%j%%J%%%%%%%%%%%%j%J%%%%%%%%%%%%%j%J%%%%%%%J%j%%%%%j%J%%%%%J%j
44038@%%%%%%%%%J%j%%%%%%%%%%%%j%%%%J%%%%j%J%%%jJ%%%%%%J%%%j%%Jj%%%%%%%%%j%%%%%%%
43962a%JjJ%%j%%J%j%%%%%J%%%%%%%%%%%%%%%jJ%%%%%%%%%%%%%%%%%%%J%%%%%%%%%j%%%%%%%%%
43887@%%%%%%%%%%%%%%J%j%%%%%%%%%%%%%%%%Jj%%%%%J%j%%J%j%%%%%%%%%%%jJ%%%%%%%%%%%%%
43812@j%%%%J%J%j%%%%%%%%%%%%%%%%%%%%%%%%%%%%%%%%%%%j%%%J%%%%%%%%%%%%%%j%%J%%%%%J
43736Aj%%%%%%%%%%%%%%%%%%%%%%%%%jJ%%%j%%%%J%%%J%j%%%%%%J%j%%j%J%%%%%%%%j%%J%%%%J
43661A%j%%%%%%%%J%jj%%%%%%%%%J%%%%%%%%J%j%%%%%%%%%%%%J%j%%%%%j%J%%%%%%%%%%j%%%%%
43586a%%J%%%%%%%%%%%%%%%%J%jJ%%j%%%%%%%%%%%%J%j%%%%%%%%Jj%%%%Jj%%%%%%%%%%%%J%%j%
43510@%%%%%%%%%%%%%%%%%%%j%%%%j%J%J%%j%%%%%%%J%%Jj%%%%jJ%%%%%%%j%%J%%%%j%%%J%%%%
43435@%%%JjJ%%j%%%%%%J%%%j%%%jJ%%%%%j%J%%%%j%%J%%%%%%Jj%%%%%%%%%%%%%%%%%%%J%%%%%
43360A%%%J%%%J%J%%%j%%j%%%%%%%%j%%%%%%%%j%%%%%%%%%%%%%%%%%%%%%J%%%%%%%j%%%%%%J%j
43285@J%%%%%J%%%%%%%j%%%J%%%%%%%J%%%J%%%j%j%%%%%j%%jJ%%%%%%j%%%%%%%%%%%%%J%%%j%%
43209@%%%%%%%%%%%j%%%%%J%%%J%%%%%j%jJ%J%%%j%%j%%J%%%%%%%%J%%j%%%%J%j%%j%%%J%%%%%
43134@%%%%%%%%%%%%%%%%%jJ%%%%%%JjJ%%%%%%%%j%%%%%%%%%%%%J%jj%%J%%%%J%j%%%%%%%%%%%
43059@jJ%%%%%%%j%%J%%%%%%%%%%%%%%%%%%%%j%J%%%%%%%%%%%%%%%%%%%%j%J%%%J%%%jJ%%j%%%
42983@%%%%%%%%%%%j%%%%%%%J%%%%%%j%J%%J%%%%j%%%%%%%J%j%%%%%%%J%%%%%%%%%j%%%%%J%%j
42908@%%%Jj%%%%%j%%J%%%%%%%%%%%%%%%%J%%%%%%%j%%%%%%%%%Jj%%%j%%%%%J%%%%%%%J%j%%%j
42833a%%%%%J%%%%%%%%%%%%Jj%jJ%j%%J%%%%%%%%%%%%%%%%%%%J%j%%%%%%%j%%%%J%%%%%%%%%%j
42757a%%%%%%J%%%%jJ%%j%%J%J%%%j%%J%%%%j%%%%jJ%%%%%%%%%%%%j%%%J%%%j%%%J%%%j%%J%%%
42682@%%%%%%%%%J%%j%%%%%%%%%%%%%%%%%%j%%%%J%%%%%%%%%Jj%%%%%%%%%%J%%%j%%%Jj%%%%%%
42607@J%%j%J%%%%j%%%%%%%j%J%j%%%%J%%%%%%%%%%%%Jj%J%%%%%%%%j%%%%%%%%%%%%J%%%%j%%%
42531@%%%J%%j%%%%%%%%J%%%j%%%j%%J%%%%%%J%%jJ%%%%%j%%%Jjj%%%%%%%J%%%%%%%%J%%%%%%%
42456Aj%%%J%jJ%j%%J%%j%J%j%%%%j%%%JJj%%%%%J%j%%%J%%%%%%j%%%%%%%J%j%%%j%%%%%%%J%%
42381@%%%%j%J%%%%%%J%%j%%%%%%%%%%%%%%j%J%jJ%%J%j%%%%%%%jJjJ%%%%j%%%J%%J%%j%%%j%J
42305@%%%%%%%%%%%%%%j%%%J%%%%%%%%%%%%%J%%%j%%%%%%%%%%%%%%%%%%%%%%%%%%J%j%%jJ%%j%
42230a%%J%%%%%%%%jJ%%%%%%j%J%%%%%%%%%%%%%%%%%j%JjJ%%%%j%%%J%J%%%%%%%%%j%%%%%jJ%%
42155@%%%%%%%%Jj%%%%%%%%%%%%%Jj%%j%%%%J%%%J%%%%%%%j%%%%jJ%%%%%%%%%%J%j%%%%%%%%J%
42079Aj%%%j%%J%%%%%%%%%%j%%%%%%J%J%%j%%%%%%%jJ%%%J%j%jJ%%J%j%%%%%%%%%J%j%%%%%%j%
42004a%%J%%%%J%%j%%%%%%%%%%%%%%%%%%%%%%%%%%J%%%j%%%j%%%%%%%%j%J%%%J%%%%J%%%%%j%j
41929aJ%%%j%J%%%%Jj%J%%%%j%%%%%Jj%Jj%%%%%%%%%%%%%J%j%%%%%%j%J%%%%%%J%%jJ%%%j%%%%
41853@%%%%J%%%j%%%%%%%%%%%%%%%%%%%%%%%j%%%%%%%j%J%%%%%%%%%J%%%%%%%%%%%%%%%%%%%%%
41778@%%%Jj%%%%%%%%%%%j%%%%%J%%%%%%j%J%%%%Jj%%%j%%%J%j%J%%%%j%%%%%J%%%j%J%%%J%%%
41703Aj%%%%%%jJ%%j%J%%%%%%%%%%J%j%j%J%j%%%%J%%%%J%%j%%%%%%%%%%%%jJ%%%%J%%j%%%j%%
41627aJ%%%%%%%%%%%%%Jj%%%%J%j%%%%%%%J%j%%J%j%%J%j%J%j%%J%j%%%%%%J%j%%%%%%%%%%%jJ
41552@%J%j%%%%%%%%%%%%%%Jj%%%%%%%j%%%J%%%%%J%j%%%%J%%%%%j%Jj%%%%%J%j%%%%%%%%%%%%
41477@%%j%J%J%j%%%%%j%J%J%%%j%%%%%%%J%j%j%J%%%%%%J%j%%%%%%j%%%J%%%%%%j%%%%%%%J%%
41401@%%%%%%%%%%%J%%j%%%%%%%%%j%%%%J%%%%j%%%%JJ%j%%%%%%%J%j%%%%%%%%%%%j%%%%%J%%%
41326@%%%%j%%%J%%%%%%%%%J%%%j%%%%j%%%J%%%%%%%%%%%%%%%J%%%%%%%%%%%j%%%%%%%%%%%%%%
41251@j%jJJ%%%%%%%j%J%J%%%j%%J%jJ%%j%%%jJ%%%%%%%J%%Jj%%%%%%j%J%%%%%%j%%%J%j%%%%%
41176@%%%Jj%%j%J%%%%%%%j%%%JJ%%%%%jJj%j%%%%%%J%j%J%%%%%%%%%%%%%%%%%%%%%%%jJ%%%J%
41100A%j%%%j%JJ%%%%%j%%%%J%j%%%%%%%%%j%%%J%%%j%%%J%%%%%%%%%j%%%%J%J%%%j%J%j%%%%%
41025@%jJ%%%J%%%j%%%%%Jj%%%%%%%%%j%%%%JJj%%%%%%%%%J%j%j%%J%j%%%%J%%%%jJ%%%jJ%%%J
40950A%%%%%%j%J%%%%%%%j%%%%%%%%%%%%%%%%%%j%%%J%%%%%%%%%%%%%%%%%%%%J%j%%%%%%%%Jj%
40874@%%%%%%%%%%%%%%%%%%%%%%%%%j%J%%%%%%j%%%%%J%%%%J%%%%jJ%%%%%%%%%%j%%%%%%J%%j%
40799@%%j%%%%%%%%%%%%J%j%Jj%%%J%%j%%%J%%%%%%%%%%%%%%%%J%%%%j%%J%%%%%%%j%%%%%%%%J
40724A%%j%j%JJ%j%%%%%%%%%%%%%J%j%%%%%%%j%J%%%%%%%%%%%%%%%%%%%%%%%%%%%%J%j%%%%%%%
40648@%%%%%J%%%%%J%%%j%%%j%j%J%J%%%jJ%j%%%%J%jJ%%j%%j%%%J%J%%%%j%%%%%%%%%%%%%%%%
40573@%%%%%%%%j%J%%%%%%%jJ%%%j%J%%%%%%%%%%%%%%jJ%%jJ%%%%Jj%%%%%%%%j%%J%%J%j%%j%%
40498aJ%%%%%%%%%%%%%j%%J%%%%%%%jJ%jJ%%%jJ%%%j%%J%J%%%%%j%%%%%%J%%%%J%j%%%%%%%%%J
40422Bj%%%%%%%%%%%J%%%%%%%%%j%%%J%%j%%jJ%%j%%%j%%%jJ%%%%%J%%%%%%%Jj%%%%Jj%%%%J%%
40347Aj%%%%%%%%%%%%%%%%%%J%%%%j%%%%%%%%%%%j%%J%J%j%%j%J%%%%%%%%%J%%j%%%%%%%%%%%%
40272@%%%%%%%j%J%j%%%%%%%%%%%%%J%%J%%j%%%%%%%%%%%%J%j%%%J%j%%%%%%%%%j%%J%%%J%%%j
40196@%%j%%%JjJ%j%%%J%%%%%%j%%%%%%%%J%%Jj%%%%%J%j%%%%Jj%%jJ%%Jj%%%%%%%%%%%%jJ%%%
40121@J%%%%%j%%%j%J%%%%%J%j%j%Jj%%%%JJ%%j%%%%%%%%%%%%%%%%%%%%%J%%%%%j%%%%%%%%%%%
40046@%%%%%%%%%%%%%j%J%%%%j%%%%J%%%%%%J%%%j%%%%%jJjJ%%%%%%%%%%%%J%j%J%%j%jJ%%%%%
39970@%%J%%j%%%%%%j%J%%j%%%J%%%%%%%%%%%%%%%%%%%%%%%%%%%%%%%%%J%%j%%%%%%%%%%%%%%j
39895a%J%%%%%%%%J%j%%%%%%%%%J%j%J%%%j%%%%%%%%%%%%%%%%%%%J%j%j%%%J%%%%%%%%%%%%%%J
39820A%%%j%J%%%j%%%%%jJ%%%%J%j%%j%%%%J%%j%%%%%%%%%J%%%%%%%%%%%%%%%J%%%%j%%%%%%%%
39744@%%%%%%%%%J%%%j%%%%%%%%%%%%%%%%Jj%J%jJ%j%%%%%%%%%%j%J%%%j%%J%%%%%%%%%%%%%%j
39669a%%J%%%%jJ%%%%%%%%J%%%j%%%%J%%%%%%%%%%%%%%Jj%%%%%%j%%%%%J%%j%%%%%%J%j%%%%%%
39594@%J%%j%%%%%%%%%%%%%%%%%%%%j%%%%J%%%%J%jj%%J%%%%%%%%%%%%%%j%%J%%%%J%j%%%%J%j
39518@%%%J%%j%%%%J%j%%%%%%%%%%%%%%%%%%%%%%%%%%%%%j%Jj%%%%%J%%%%%%%%j%J%%%J%%%Jj%
39443A%%J%j%%%%%j%%%%%%%%%%%%%j%%%%%%J%%%%%%%jJ%%%%%%%Jj%%%%JjJ%%j%%%%%%%%%%%%J%
39368A%j%%%j%%J%%%%%%%%%%j%%J%%%%%Jj%%%%%%%%%%%%J%%%j%%%%%%%%%%%%%%%%%%%%jJ%j%%%
39292a%J%%%%%%Jj%%%%%%%%%%%%%%J%%j%%%%%%%%%%%%%%%%J%%%j%%%%jJ%%%%%%%%%%%%%%%%%%%
39217@%%J%%%jj%%J%%%J%%%%%%%jJ%%%%%j%Jj%%%%%%%%%%%%%%%%%%%%%%%%%%%%%%%%%%%%%%%%%
39142@%%jJ%%%%%%%%%%%%%%%%%j%%%J%%%%%%j%J%j%%J%%%%%%j%%%%J%j%%%%%%%J%%%%%%%%%%%%
39067@%%%%%%%J%j%%%J%%j%%%%%%%%%%%%%%%%%%%%jJ%%%%%%%%%%%%%%%%%%%%%%%j%%%J%%%%%%%
38991@%%Jj%%%%J%%%%%%%j%%%%Jj%%%%%%%%%%%J%%%%%j%%j%%%J%%%J%%%%j%%%%%%%%%%%%%%%%%
38916@%%J%j%%%J%j%%J%%%%%%%%%j%%%%%%%%%%%%%%%%%%%jJ%%%%%%J%j%%j%J%%%%%%%%%%%%%%%
38841@%%%%%%%%%%%%%%%%%%j%%%%%J%%%%%%%%%jJ%%%%%%%%%%%%%%%J%%%j%%%%%%%%%%%j%%%J%%
38765@%J%%j%%%%%%%%J%j%%%%%%%%%%j%J%%%%%%%%%%%%%%%%%%%J%%%%%%%%j%%j%%%%%J%j%%%%J
38690@%%j%%J%%j%%%J%j%%%%%%%%%%J%%J%%j%%%j%%J%%%%%%%%%%%%%%%%%%J%j%%%%%%j%%%J%%%
38615@%%%%J%%%j%%%%J%J%j%%%%%%%j%J%%j%%%%%%%J%%%%j%%%%%%%%%%%%%%%%%jJ%%J%j%%%%%%
38539@%%%jJ%%%%%%%%%%%jJ%%J%%%%%%J%%jJ%%%%j%%J%j%%j%%%%%%%%%%j%J%%%%%%%%%%%%%%%%
38464@J%%j%J%%Jj%J%j%j%J%%%%%%J%%J%%%%J%j%j%%j%%%%%%J%%%%%%%%j%j%%%J%%%%%%%%%%j%
38389@%%%%%J%%%%%%%%%%%%%%%%%%%%%%%J%j%%%%%%%%J%%%%%J%%%%%%%%j%%%j%%%%%%%%%j%%%%
38313@%%J%%j%%J%j%%%%J%j%%%J%%%%%%j%%j%J%%%%%%%%%%%%%%%%%%%%%%%%%%%%%%%j%J%%%%%%
38238@%%%%Jj%%%%%%J%%j%%%%%j%J%%%%%%%%j%Jj%%%%%%%J%%%%%%%%J%j%%%%%%%%%%%%j%%J%%%
38163@J%%%%j%%%%%%%%%%%%%%%%%%%%%J%j%%%%%%%jJ%%%%%%%%%%%%j%J%%%%%%j%%%%J%%%%%%%%
38087@%%%%%%%J%j%%j%%%%%J%%%%%%%%%J%jj%%%J%%%%%%%%%%%j%%%J%j%%%%Jj%%J%%%%%%%%%%%
38012@%%%j%J%%J%j%%%%%%%%%%%%%%%%%%%%j%J%%%%%%%%%%%%%%%jJ%%J%%%j%%%%%%%%%jJ%%Jj%
37937@%%%%%%JjJ%%jj%J%%%%%%%%%%%%%J%%%j%%%%%%%%%%%%%Jj%%%%%%%%%%%%%%%%%jJ%%%%Jj%
37861@%%%%%%J%%j%%%%%%%%%Jj%%%%%jJ%%%%%%%%%j%%%J%%%%%%%%%%%%%%%%J%%j%Jj%%%%%J%%j
37786@%J%%j%%%%J%%%%%%%%%%%%j%%%%J%j%%%%%%%Jj%%%%%%%%%%%%%J%j%%%%%%%%%%%%Jj%%%%%
37711@%%%%%%%%%%%%j%J%%%J%%%%%%%%%j%%%%%%%%jJ%%%%%%%%%%%%%%%%%%%%%%%%%%j%J%j%%%J
37635@%%%%Jj%J%%%j%%J%j%%%%%%%%%jJ%%%j%%%%%%%%%J%%%%%jJj%%%%J%%J%%j%%%%%%%%%%%%%
37560@%%%j%J%j%J%%Jj%%%%%%%J%j%%%Jj%%%%j%%%%%%%J%%%%%%jJ%j%%%%%%J%%%%%%%%%%%%%%j
37485aJ%j%%%J%%%%%%%%%%%%%%%%%%%%%j%%J%%%%%Jj%%%%%%%%%%%jJ%%%%j%%J%%%%%%%J%%%%%%
37409A%%%j%%%%%%%%%%%%%%J%%%%jJ%%%%%%j%%%%%%%%%J%%j%%J%%%j%%%%%%%%J%%j%%%%J%%%%%
37334A%%%%%%%%jJ%%j%%%%%%%J%%j%%%%%%%%%%%%J%%%%j%%%%%%J%j%%%J%j%%%%%%%%%%%%Jj%%%
37259@Jj%%%%%%%%%%%%%%%%%%%%%%%%%J%j%%%%%%%%j%Jj%%J%%%%%%%%%%%%%j%%%%%%J%%%%%%%%
37183@%%%%%%%%%%%%%%%%%%%%%%%%%%%%%%%%j%%%%J%%%%j%%J%Jj%%j%%%%J%%%%JjJ%j%%%%J%%%
37108A%%j%%%%%%j%%J%%%jJ%%%%%%j%J%Jj%%%%%J%%%%%%%%%jJ%%%j%%%%%%%%%%%%Jj%j%%%%%J%
37033@%%%%J%%%j%%%%%%j%J%%%J%j%%%%%%%%%%%%%%%%%%%%%%j%%%%%%J%%%%j%%%J%%%%%%%%%%j
36958a%J%%%%%%%%%%%%%%%%%%%%%%%%%%%%%%%%%%%%%%%%%J%%%j%%%%%%%%%%%%%%%%%%%%%%J%j%
36882@%%%%%%%%%%%%%%%%%%%%%%%%%%%jJ%J%%%%%j%J%%%%%%j%%%%%j%%J%%%%%%%%%%%%%j%%%J%
36807@%%%J%j%%%J%%%%%j%%%%%%%%%j%J%%%%%%%%%%%%%%%%%%%Jj%%%%%%%%%%%%%%%%%%%%%%%%%
36732@%jJ%%%%%%%%jJ%%%j%%%J%%%%%%%%%%%%%Jj%J%%%%%%%j%%%%%%%%%%%%%%%%%%%%%%%%J%%j
36656@%%%jJ%%%%%%%%%%%%%%%%j%%J%%%%%%%%%%%jJ%%%%%%%%%%%%%%%%%%%%Jj%J%j%%J%%j%Jj%
36581@%J%j%%%%%%%%%%%%%%%%%%%%%J%j%%%%%jJ%%%%%%%%%%%%%%%%%%%%%%%%J%%j%%%%%%%%%%%
36506@%%J%%j%j%%%J%%%%%%%%%%%%%%j%%%%%%%J%%%%%%J%j%%%%%%%%%%%%%%j%%%J%%%%%%%%%%J
36430A%%j%%%%j%%%J%%%%%%%%%j%%J%%%j%J%%%jJ%%%%%%%%%%%j%%J%%%%%%%%J%j%%%%%%%Jj%J%
36355A%%%%%j%%%%%%%%%%%%%%J%j%%j%J%%%%%%%%%%%%%%%%%%%%%%%%%%jJ%%%%%%%%%%%%%%%%%%
36280@%%%%%%%%%%%%%%%%%%%%%%%%%%%%%%%%%j%J%%%%%%%%%%%%%%%%%%%%J%%%j%%Jj%J%j%%%%%
36204@%%%%%%%j%%%%J%%%%%%%%%%%J%j%%%J%j%%%%%%%%%%%%%%%%%%%%%%%%j%%%%%Jj%%%%J%%%%
36129@%%%%%%%Jj%%%%%J%j%%%%%%jJ%%%%%%%%%%%%j%%%J%%%%%%%%%%%%%%%%%%J%j%%%jJ%%%%%%
36054@%%%%%%%%%%%%jJ%%%%%%%%%%%%%%%J%%j%%%%%j%%%%%%J%%%%%%%%%%%%%%%%%jJ%%%%%%%%%
35978@%%%%%%%%%%%%%%%%%%%%%%%J%j%%%%%%%%jJ%%%%j%J%Jj%j%%%%%%J%%%J%j%%J%j%%%%%%%%
35903@%%%%%%%%%%%%%%%%%%j%%%J%%%%%%%%%%j%%%%J%%%%%%%%%%%%%%%%%%%%%J%j%%%%%j%J%%%
35828@%%J%%%%%j%%%%%%%%%%%%%%%%%%%%%%%%%%jJ%%%%%j%%%%%J%%%%%%%%%%%%%%%%%%%%%%%%%
35752@%Jj%%%J%%%j%%%%%%%Jj%%%%Jj%%%%%%%J%%j%%%%%%%%%%%%%%%J%%%j%%%%%%%%%%%Jj%%%J
35677A%%%%%%%j%Jj%%%%%%%%jJ%%%jJ%j%%J%%%%%j%J%%%J%%%%%%j%%%%%%%%%%%%%%J%%%%%J%j%
35602A%%%j%J%%%%%j%%%%%%%%%%%%%%%%%%%%%%%j%J%%%%%%%%J%j%%%%j%%J%%%%%%Jj%J%%j%%%%
35526@%%%%%%j%%%%J%%%%%%%%%%%%%%%%%%%%%%%%%%%%%%%%%%%%J%%%%j%%%%%%%%%%%%%%J%j%%%
35451@%%J%j%%J%%%%j%Jj%%%%Jj%%%%%%J%j%%%%%%%%%%%%%%%J%%%j%%%%%%%%%%%%j%%%%J%%%%%
35376@j%J%%%%%%%%%%%%%%Jj%%%%%%%%%j%%%%%%%J%%%%%%%J%%%j%%%%j%%%%%%%%%J%%%%%%%%%%
35300@%%jJ%%j%J%%%j%J%%%%%%jJ%%J%%%%j%%%%%%J%%%%j%%%j%%%J%%%%%%Jj%%%%%%%%%%%%%%%
35225@J%%j%%%J%%%%%%%%jj%%%%%J%%%%%%%%%%%%%%%%%%J%%j%%%%%%%%%%%j%Jj%%J%%%%%%%%%%
35150@%%J%%%%%j%%j%%%%%J%%%j%%J%%%%%j%%J%%%%%%%%%%J%j%%%%%%%%%J%j%%%%%%%%J%%%j%%
35074@%%j%%%%J%%%%%%%J%%j%%%%J%%%%%%%j%%%%%%%%%%%%%%%%%%%%%%%%%%%%%%%%%%%%%%%%%%
34999@%%%%%%%%%%%%%%%%%%%%%%j%Jj%%J%%%%%%%%%j%J%%%%%%%%%%j%J%%%%%%%%j%%J%%%j%%Jj
34924a%%J%%%%%%%%%%%%%%%%%%%%%%%J%%%%%%%%%%%j%%%%%%%%%%%%%%%%%%%%%%j%%%%J%%%%%%j
34848a%J%J%%j%%%%%%%j%%%%%J%%%%%%%%%%%j%J%%%%J%%%%%j%%%%%j%%J%%%%%%%%%%%J%%j%%%%
34773@%%%%%%%Jj%%%%%%%%J%%%%j%jJ%%%%%%%%%%%%%%%%%%%%%%%%%%%%%%%%%%%%%%%%%%%%%%%%
34698@%%%%%%%%%J%%j%%%%%j%J%%%%%%%J%%j%%%%%%%%%%%%%%%%%%%%%%J%j%%%%%%jJ%%%jJ%%%%
34623@%%%%%%%%J%%jJ%j%%%J%j%%%%%%%%jJ%j%%%J%%%%%%%%%j%%JJ%j%%%J%%%j%%%%%%%%J%%%%
34547A%%j%%j%J%%%J%%%j%%jJ%%%%%%%%%%J%%%%%%%%%%%%%%%%%%%%%%j%%%%%J%%%j%J%j%%J%j%
34472@%%%%%%%j%J%%%%%%%%%%%%%%%%%%j%%J%%%%%%%%%%%%%%%%j%%J%%j%%%J%%%%%%%%%%%%%jJ
34397@j%J%%%%%%%%%%%%%J%j%%%j%%%%%J%%J%%j%%%%j%J%%jJ%%%%%%%J%%%%%j%%j%%J%j%J%%%%
34321@jJ%%%%%%j%%%%%%J%%j%%%%%%%%%%%%%J%j%%%J%%%%%%%%%%%%%%%%%%%%%%%%j%J%%%%%%%%
34246@%%%%J%%j%%%%%%%%j%%%%J%%%%%jJ%%%%%%%%%%%%%%%jJ%%%jJ%%j%J%%%j%%%%J%%%%%%%%J
34171A%%j%%J%%%%%%%%%%j%j%%%%%J%%%%%%J%%%%j%j%%%%%%J%%%J%%j%%%%%%%%%%%%%%J%j%%%%
34095@%%%%%J%j%%%%%%J%j%%%%%%%%%%%%%%%jJ%%%jJ%%%%%%%%%%%jJ%%%%%%%%%%%%%%%Jj%%%%%
34020@%%%%%%%%%%%j%J%%%%%%%j%%%%%%%%JJ%j%J%%j%%%%%%%%%%%%%%%%jJ%%%%jJ%%%jJ%j%%%J
33945@%%jJ%%%%%%%J%%%%%jJj%j%J%%%%%jJ%%%%J%%%%j%J%%%Jj%%%j%%%%%%%%%%%J%j%%%%%%%%
33869@%%%%%J%%j%%%%%%j%%%J%%%%J%%j%%J%%j%%%%%%jJj%%J%%%%%%%%%jJ%J%%%%%%%%%%%%%%J
33794Bj%j%%J%%j%%%%jJ%%%%%%%%%%%%%%%%%%j%J%%%%%%%%%%j%%%%J%%J%j%jJ%%%%%%%%%%%%%%
33719@%Jj%%%%%%%%%%%j%%%J%%%%jJ%%j%%%%%%J%%%%%%J%%jJ%%%j%%%%%J%%j%%j%%%J%%%%%%%%
33643@%%Jj%%%%j%J%%%%%%%%%%j%%%%J%%%%%%%%%%%%%%%j%J%%%%jJ%%%%%%%%%J%j%%%%%%J%%%%
33568A%j%j%%%J%%%%%%%%%%%%J%%%j%%%%%%%%%%%%j%J%%%%%%%%%%%%J%j%%%%%J%%%%j%%%%%%%%
33493@j%%J%%%%%%%%j%%%%%J%%%%%%%%%%%%%%j%J%%%%%%%%%%%%%%%%%%%%%%J%%%%%%%j%%j%%J%
33417@J%%%%%%%%%j%%%%%%J%j%%%%J%%j%%%%%%J%%j%%%%Jj%j%%%%%J%%%%%%%%%%%%%%%%%%%%%%
33342@%%J%%%j%%Jj%%j%%%%%%%%J%J%%J%j%%%%%%%%%j%jJ%%%%jJ%J%%%%j%%%%%%%%%%j%%%Jj%%
33267a%%%%%%J%J%%%j%%%%%%%%%%J%%Jj%%%%jj%J%%%%%%%%%%%%J%%j%%%%%%%%%%%J%%j%j%%%%%
33191a%%%%J%j%%%%%J%j%%%J%%J%%j%%%%%%%%%%%%Jj%%J%%%%%j%%%%%%%%%%%%%%%%%%J%%j%%%%
33116@j%J%%%%%%%%%%%%j%J%%j%%%%%%%%J%%%%%J%j%%%%%%J%%%%%j%%%%%%%%%%%%j%%J%%j%%%%
33041aJ%%j%%J%%%%%%j%J%%%%jJ%%%%%j%%J%j%%%J%%%%%%%%%%%J%j%%%%jJ%%j%%J%%Jj%jJ%%%%
32965@%Jj%%%%jJ%%%J%jJ%%%%%%%%%%j%%%%%%%j%%%%%J%%%%%%%%%%%%Jj%%%%%%%%%J%%j%%%%%%
32890@%%%%%%Jj%%%%%%%%j%%J%%%Jj%%J%%j%%%%%%%%%%%%%%J%%%%jJ%%%%%j%%J%%j%%%%%%%%J%
32815A%%j%J%%%%%%%%j%%%%%%%%%%%%jJ%%%%%%%%%%%%%jJ%%J%%%j%%%%%%j%%%J%%%%%jJ%%%%J%
32739A%%J%%j%%j%%J%j%%%j%%%J%%%%%%%jJ%J%%j%j%%J%J%%%%%jJj%%%%%%j%J%%%jJ%%%%%%%%%
32664@%%%%%%%jJ%j%J%J%%%j%%%%%%%%j%%%%J%%%%%%%%%J%%%%%%%%%%%%%j%%%%%%%%%%%%%j%J%
32589@jJ%%%%%%J%jJ%j%%%%%%%%j%J%%%%%%%%%j%%%J%%j%%%%%J%j%%%%J%%Jj%%j%%%%J%%%j%Jj
32514aJ%%%j%J%%%%J%%j%%%%%%%%%%%%%%jJ%j%%%J%%%%%%%%%%%%Jj%%j%J%%%%%%%%J%%%%%%%%j
32438@%%%%%jJ%J%%%j%%%%J%%%%J%jj%j%%%J%%%%%%%%%%%%%%%%%%%%%j%%%%JJ%%%%%%%%%%j%%%
32363@%%j%J%%%JjJ%%%%j%%%jJ%JjJ%%%j%%j%J%%J%j%%%%%%%J%%%%%%%j%%%J%%j%%%%%%%%%%%%
32288@%%%%J%j%%%%%j%%J%%Jj%j%%J%%J%%%%%%%%j%%%%%%%%%j%%%J%%%%j%%J%%%%%%%%%%j%J%j
32212a%%%J%%%jJ%%%%%J%j%%%%%%%%J%j%%%%%%%%JJ%%jj%%%%%%%%J%j%%j%J%%%%%%%%%jJ%%%%J
32137A%%%j%%%J%j%%j%%%J%%J%%j%%%%%%%%J%%%j%%%%%%%%%%%%%%J%%j%%%%%J%%j%j%JJ%%%j%%
32062@%j%%%J%%Jj%%j%%%J%%%%%%%%%%%j%%%%J%%%j%%J%%%%j%J%%j%%%%%%%J%%%%%%%%%%%%%%%
31986@%%%%%%%%%%%%%Jj%%%J%%%%%%%%%%%%%%%%%j%%%%%%%%%%%%%jJ%J%%%%%%%j%%%%%%%%%%%J
31911A%%%%J%%j%jJj%j%%J%%%J%%jj%%%%J%%%%%%%%%%J%%%%%%j%Jj%j%%%%%JJ%%j%%%%%%%%%J%
31836A%%%%%%%%%%%%j%J%%%%%j%%%%%j%%J%%Jj%%%%%%%%Jj%j%%%J%J%%%%%%%%j%%%%%%%%%%%%%
31760@%%%%%%%%%%%%%%%%%%%%j%%%J%%%%%%J%%%%%j%%%%%j%%%J%%%%%%Jj%%%J%j%%%%%%Jj%j%J
31685@%%%j%J%%%jJ%J%j%%%j%J%%%%%%J%%%%j%%%jJ%%%%%%Jj%%j%%%%%JjJJ%j%%%%%J%%j%%%%%
31610@%%%%%J%j%%%%J%j%%%%%%%%%j%%%%%J%%%%%J%%j%jJ%%%%%%%%%%%%%%%%%%%%%jJ%%%j%%%J
31534@j%%%%%%%%%%%%%%%%J%%J%%jj%%J%%%%%%j%j%JJ%%%%%%Jj%%%%%%%%%%%%%%%%J%jj%%%%%J
31459@%%%j%J%%%%%%%%J%j%%%jJ%%j%%%%%%%%J%%%%%%%%%%%%%%%%%%%j%J%%%%J%%jj%%%%%J%J%
31384A%%%j%%%jJ%%%%%%%%%%%%%%%%%Jj%%j%J%%%%%%%%J%j%jJ%%%%%j%J%%%%%%%%j%%%%%%J%%%
31308@jJ%%%%%%%%%%%J%%j%%%%J%%j%%%%%%%%%J%%%j%%%%J%%%%%j%Jjj%%J%%%%%%%%%j%%%%%J%
31233@%%%%%%%%%J%%jJj%%%%jJ%%%%%%%%J%j%%%%%%%j%%J%%%%%%j%%%%J%%%%%%%jJ%%%%%%%%%%
31158@%%%%j%%%J%%%%%%%%%%%%%%%%%%%%%j%J%%%j%%%%%%%%%%%%%%%%%%%J%%%j%%J%%%%%%%%%%
31082@%%%%%%%%%%%j%%J%%%%%j%%%%%J%%%%%J%%j%%%j%J%%%%%%%%%%%%%%%jJ%%%%%J%%%j%%J%%
31007A%%%%%j%%%%%j%%%J%%%%%%%%%%%%%%%j%J%%%%%%j%%J%%Jj%j%J%j%J%%%J%%%j%%%%%%%%J%
30932Aj%%%%%j%J%%%%%J%j%%Jj%%%%Jj%%%%%%%%%%%J%j%%%jJJ%%%j%%j%J%%%%%%%%%%%%%%%%%%
30856@%%%%%%%%%%%%J%j%%%%%%%%%%%%%%%%%%%%%%%%%%%%%%%jJj%J%%%%J%j%%%j%%%J%%%Jj%%%
30781@%J%%%%j%%J%j%%%%%%%%%jJ%%%%%%%J%%j%%%%j%%%J%%%%%%%%%%%%%%J%%%%j%%jJ%%%%%%%
30706@%%%%%%%%%%%%%%%%%%%%%%%j%J%%%j%%%%%%%%J%%%%%%%%%%%%%%%%%%%%%%%%%%%%jJ%%%%%
30630@%%%%%%%%%%%%%%%%%%%%%%%%%%%J%%j%%%%Jj%%%%%%%%%%%%j%J%%j%J%%%%%Jj%j%J%%%%%%
30555@%%%%%%%%%%%J%%%%j%%jJ%%%%%%%j%%%J%%%jJ%%%j%%J%%%%%%%%%%%%%%%%%%%%%%%%%%%%%
30480@%%%%%%%j%%%%%%%%J%%%%%jJ%%j%%%J%%%%%%J%%j%%%%%%%%%%%%%%%%%%%%%%%%J%%%j%%%%
30405@%%%%%%%%%%%%%%%%%%%%%%%J%%%j%J%j%%%%%jJ%j%%J%%%%%%%Jj%%%%%jJ%%%j%%J%%%%j%J
30329@%jJ%%%%%%%%%%%%j%%%%J%%%jJ%%%%%%%%%%%%j%%J%%jJ%%%%%%%J%%j%%%%%%%%%%%%%%%%%
30254@j%%%%%J%%j%J%%%%%%%%%%%%%%%%j%J%%%%%%%%%%%%%J%j%%%%%%%%%%%%%%%%%%J%j%%%%%%
30179@%%%%%%%%%%%%%%%%%%jJ%%%%%%%%%%%%%%%%%%J%j%%%%%%%%%%%%%%%%%%%%%%%%%%%J%%%%%
30103A%%%j%%%%%%j%%%%%%%%%%%%%%%%%%%%%J%%%%%%%%%%%%j%J%%%%%%%%%%%%%%%%%%%%%j%%J%
30028@%%%%%%%%%%%%%%%%%%%%%%%%%%%%%%%%%%%%%%%%%%%%%%%J%%%j%%J%%%j%%%%J%j%%%%%%%%
29953@%%%%%%%%%%%%%%%%%%%%%%%%%%%%%%J%%%j%%%%%%%%%%%%%%%%j%J%%%%%%%%%%%%J%j%%%%%
29877@%%%%%%%%%%%%J%%%j%%%%%%%%J%%%%%%j%%%%%%%%%%%%%%%%%%%%%%%%%%%%%%%%%%%%%%%%%
29802@%%%%%%%%%%%%%%%J%j%%%%%%%%%%%%%%%%%%%%%%%%%%%%jJ%%%%%%J%j%%%%%%%%%%j%%J%%%
29727@j%%J%%%%%%%%%%%%%%%%%%%%%%%%%%%%%%%%%%%%%%%%%%%%%%%%%%%%%J%%j%%%%%%j%J%%%%
29651@%%%%%%%%%%%%%%%%%%%%%%%%%%%%%%J%%j%%%%%%%%%%%%%%%%%%%j%%J%%%%%%%%%%j%%%%%J
29576@%%%%%%%%%%%%%%%%%%%%%%%%%jJ%%%%%%%%%%%%j%%%J%%%%%%%%%%j%J%%%J%j%%%%%%Jj%%%
29501@%%%%%%%%%%%%%%%%%%%%%%%%%%%%%%%%%%%%%%%J%%%%%j%%%%%%%%%%%%%%%%%%%%%%%%%%%%
29425@%%%%%j%J%%%%%%%%%%%%%%%%%%%%%%%%J%j%%%%%%%%%%%%%%%%%%%%%%%%%%%%%%%%%%%%%%%
29350@%%%%%%%%%%%%%%%%%%%%%%%%%%%%%%%%%%%%%%%%%%%%%%%%%%%%%%%%%%%%%%%%%%%%%%%J%j
29275@%%%%%%%%%%%%%%%%%%%%%%%%%%%%%%%%%%%%%%%%%%%%%%%%%%%%%%%%%%%%%%%%J%%j%%%%%%
29199@%%%%%%%%%%%%%%%%%%%%%%%%%%%%%%%%%%%%%%%%%%%%%%%%%%%%%%%%%%%%%%%%%%%%%%%%%%
29124@%%%%%%%%%%%%%%%%%%%%%Jj%%%%J%%j%%%%%%%%%%%%%%%%%%%%%%%%%%%%%%%%%%%%%%%%%%%
29049@%%%%%%%%%%%%%%%%%%%%%%%%%%%Jj%%%%%%%%%%%%jJ%%%%%%%%%%%%%%%%%%%%%%%%%%%%%%%
28973@%%%%%%%%%%%%%%%%%%%%%%%%%%%%%%%%%%%%%%%%%%%%%%%%%%%%%%%%%%%%%%%%%%%%%%%%%%
28898@%%%%%%%%%%%%%%%%%%%%%%%%%%%%%%%%%%%%%%%%%%%%%%%%%%%%%%%%%%%%%%%%%%%%%%%%%%
28823@%%%%%%%%%%%%%%%%%%%%%%%%%%%%%%%%%%%%%%%%%%%%%%%%%%%%%%%%%%%%%%%%%j%%J%%%%%
28747@%%%%%%%%%%%%%%%%%%%%%%%%%%%%%%%%%%%%%%%%%%%%%%%%%%%%%%%%%%%%%%%%%%%%%%%%%%
28672@%%%%%%%%%%%%%%%%%%%%%%%%%%%%%%%%%%%%%%%%%%%%%%%%%%%%%%%%%%%%%%%%%%%%%%%%%%
28597@%%%%%%%%%%%%%%%%%%%%%%%%%%%%%%%%%%%%%%%%%%%%%%%%%%%%%%%%%%%%%%%%%%%%%%%%%%
28521@%%%%%%%%%%%%%%%%%%%%%%%%%%%%%%%%%%%%%%%%%%%%%%%%%%%%%%%%%%%%%%%%%%%%%%%%%%
28446@%%%%%%%%%%%%%%%%%%%%%%%%%%%%%%%%%%%%%%%%%%%%%%%%%%%%%%%%%%%%%%%%%%%%%%%%%%
28371@%%%%%%%%%%%%%%%%%%%%%%%%%%%%%%%%%%%%%%%%%%%%%%%%%%%%%%%%%%%%%%%%%%%%%%%%%%
28296@%%%%%%%%%%%%%%%%%%%%%%%%%%%%%%%%%%%%%%%%%%%%%%%%%%%%%%%%%%%%%%%%%%%%%%%%%%
28220@%%%%%%%%%%%%%%%%%%%%%%%%%%%%%%%%%%%%%%%%%%%%%%%%%%%%%%%%%%%%%%%%%%%%%%%%%%
28145@%%%%%%%%%%%%%%%%%%%%%%%%%%%%%%%%%%%%%%%%%%%%%%%%%%%%%%%%%%%%%%%%%%%%%%%%%%
28070@%%%%%%%%%%%%%%%%%%%%%%%%%%%%%%%%%%%%%%%%%%%%%%%%%%%%%%%%%%%%%%%%%%%%%%%%%%
27994@%%%%%%%%%%%%%%%%%%%%%%%%%%%%%%%%%%%%%%%%%%%%%%%%%%%%%%%%%%%%%%%%%%%%%%%%%%
27919@%%%%%%%%%%%%%%%%%%%%%%%%%%%%%%%%%%%%%%%%%%%%%%%%%%%%%%%%%%%%%%%%%%%%%%%%%%
27844@%%%%%%%%%%%%%%%%%%%%%%%%%%%%%%%%%%%%%%%%%%%%%%%%%%%%%%%%%%%%%%%%%%%%%%%%%%
27768@%%%%%%%%%%%%%%%%%%%%%%%%%%%%%%%%%%%%%%%%%%%%%%%%%%%%%%%%%%%%%%%%%%%%%%%%%%
27693@%%%%%%%%%%%%%%%%%%%%%%%%%%%%%%%%%%%%%%%%%%%%%%%%%%%%%%%%%%%%%%%%%%%%%%%%%%
27618@%%%%%%%%%%%%%%%%%%%%%%%%%%%%%%%%%%%%%%%%%%%%%%%%%%%%%%%%%%%%%%%%%%%%%%%%%%
27542@%%%%%%%%%%%%%%%%%%%%%%%%%%%%%%%%%%%%%%%%%%%%%%%%%%%%%%%%%%%%%%%%%%%%%%%%%%
27467@%%%%%%%%%%%%%%%%%%%%%%%%%%%%%%%%%%%%%%%%%%%%%%%%%%%%%%%%%%%%%%%%%%%%%%%%%%
27392@%%%%%%%%%%%%%%%%%%%%%%%%%%%%%%%%%%%%%%%%%%%%%%%%%%%%%%%%%%%%%%%%%%%%%%%%%%
27316@%%%%%%%%%%%%%%%%%%%%%%%%%%%%%%%%%%%%%%%%%%%%%%%%%%%%%%%%%%%%%%%%%%%%%%%%%%
27241@%%%%%%%%%%%%%%%%%%%%%%%%%%%%%%%%%%%%%%%%%%%%%%%%%%%%%%%%%%%%%%%%%%%%%%%%%%
27166@%%%%%%%%%%%%%%%%%%%%%%%%%%%%%%%%%%%%%%%%%%%%%%%%%%%%%%%%%%%%%%%%%%%%%%%%%%
27090@%%%%%%%%%%%%%%%%%%%%%%%%%%%%%%%%%%%%%%%%%%%%%%%%%%%%%%%%%%%%%%%%%%%%%%%%%%
27015@%%%%%%%%%%%%%%%%%%%%%%%%%%%%%%%%%%%%%%%%%%%%%%%%%%%%%%%%%%%%%%%%%%%%%%%%%%
26940@%%%%%%%%%%%%%%%%%%%%%%%%%%%%%%%%%%%%%%%%%%%%%%%%%%%%%%%%%%%%%%%%%%%%%%%%%%
26864@%%%%%%%%%%%%%%%%%%%%%%%%%%%%%%%%%%%%%%%%%%%%%%%%%%%%%%%%%%%%%%%%%%%%%%%%%%
26789@%%%%%%%%%%%%%%%%%%%%%%%%%%%%%%%%%%%%%%%%%%%%%%%%%%%%%%%%%%%%%%%%%%%%%%%%%%
26714@%%%%%%%%%%%%%%%%%%%%%%%%%%%%%J%%%%%%%%%%%%%%%%%%%%%%%%%%%%%J%%%%%%%%%%%%%%
26638B%%%%%%%%%%j%%%%%j%%%%%j%%%%%%%%j%%%%%%%%%%%%%%%%%%%J%%%%%%%%%%%%%%%%%%%%%%
26563a%%%%%%%%%%%%%%%%%%%%%%%%%%J%%%%%%%%%%%%%%%%%%%%%%%%%%%%%%%%%%%%%%%%%%%%%%%
26488@%%%%%%%%%%%%%%%%%%%%%%%%%%%%%%%%%%%%%%%%%%%%%%%%%%%%%%%%%%%%%%%%%%%%%%%%%%
26412@%%%%%%%%%%%%%%%%%%%%%%%%%%%%%%%%%%%%%%%%%%%%%%%%%%%%%%%%%%%%%%%%%%%%%%%%%%
26337@%%%%%%%%%%%%%%%%%%%%%%%%%%%%%%%%%%%%%%%%%%%%%%%%%%%%%%%%%%%%%%%%%%%%%%%%%%
26262@%%%%%%%%%%%%%%%%%%%%%%%%%%%%%%%%%%%%%%%%%%%%%%%%%%%%%%%%%%%%%%%%%%%%%%%%%%
26187@%%%%%%%%%%%%%%%%%%%%%%%%%%%%%%%%%%%%%%%%%%%%%%%%%%%%%%%%%%%%%%%%%%%%%%%%%%
26111@%%%%%%%%%%%%%%%%%%%%%%%%%%%%%%%%%%%%%%%%%%%%%%%%%%%%%%%%%%%%%%%%%%%%%%%%%%
26036@%%%%%%%%%%%%%%%%%%%%%%%%%%%%%%%%%%%%%%%%%%%%%%%%%%%%%%%%%%%%%%%%%%%%%%%%%%
25961@%%%%%%%%%%%%%%%%%%%%%%%%%%%%%%%%%%%%%%%%%%%%%%%%%%%%%%%%%%%%%%%%%%%%%%%%%%
25885@%%%%%%%%%%%%%%%%%%%%%%%%%%%%%%%%%%%%%%%%%%%%%%%%%%%%%%%%%%%%%%%%%%%%%%%%%%
25810@%%%%%%%%%%%%%%%%%%%%%%%%%%%%%%%%%%%%%%%%%%%%%%%%%%%%%%%%%%%%%%%%%%%%%%%%%%
25735@%%%%%%%%%%%%%%%%%%%%%%%%%%%%%%%%%%%%%%%%%%%%%%%%%%%%%%%%%%%%%%%%%%%%%%%%%%
25659@%%%%%%%%%%%%%%%%%%%%%%%%%%%%%%%%%%%%%%%%%%%%%%%%%%%%%%%%%%%%%%%%%%%%%%%%%%
25584@%%%%%%%%%%%%%%%%%%%%%%%%%%%%%%%%%%%%%%%%%%%%%%%%%%%%%%%%%%%%%%%%%%%%%%%%%%
25509@%%%%%%%%%%%%%%%%%%%%%%%%%%%%%%%%%%%%%%%%%%%%%%%%%%%%%%%%%%%%%%%%%%%%%%%%%%
25433@%%%%%%%%%%%%%%%%%%%%%%%%%%%%%%%%%%%%%%%%%%%%%%%%%%%%%%%%%%%%%%%%%%%%%%%%%%
25358@%%%%%%%%%%%%%%%%%%%%%%%%%%%%%%%%%%%%%%%%%%%%%%%%%%%%%%%%%%%%%%%%%%%%%%%%%%
25283@%%%%%%%%%%%%%%%%%%%%%%%%%%%%%%%%%%%%%%%%%%%%%%%%%%%%%%%%%%%%%%%%%%%%%%%%%%
25207@%%%%%%%%%%%%%%%%%%%%%%%%%%%%%%%%%%%%%%%%%%%%%%%%%%%%%%%%%%%%%%%%%%%%%%%%%%
25132@%%%%%%%%%%%%%%%%%%%%%%%%%%%%%%%%%%%%%%%%%%%%%%%%%%%%%%%%%%%%%%%%%%%%%%%%%%
25057@%%%%%%%%%%%%%%%%%%%%%%%%%%%%%%%%%%%%%%%%%%%%%%%%%%%%%%%%%%%%%%%%%%%%%%%%%%
24981@%%%%%%%%%%%%%%%%%%%%%%%%%%%%%%%%%%%%%%%%%%%%%%%%%%%%%%%%%%%%%%%%%%%%%%%%%%
24906@%%%%%%%%%%%%%%%%%%%%%%%%%%%%%%%%%%%%%%%%%%%%%%%%%%%%%%%%%%%%%%%%%%%%%%%%%%
24831@%%%%%%%%%%%%%%%%%%%%%%%%%%%%%%%%%%%%%%%%%%%%%%%%%%%%%%%%%%%%%%%%%%%%%%%%%%
24755@%%%%%%%%%%%%%%%%%%%%%%%%%%%%%%%%%%%%%%%%%%%%%%%%%%%%%%%%%%%%%%%%%%%%%%%%%%
24680@%%%%%%%%%%%%%%%%%%%%%%%%%%j%%J%%%%%%%%%%%%%%%%%%%%%%%%%%%%%%%%%%%%%%%%%%%%
24605@%%%%%%%%%%%%%%%%%%%%%%%%%%%%%%%%%%%%%%%%%%%%%%%%%%%%%%%%%%%%%%%%%%%%%%%%%%
24529@%%%%%%%%%%%jJ%%%%%%%%%%%%%%%%%%%%%%%%%%%%%%%%%Jj%%%%%%%%%%%%%%%%%%%%%%%%%%
24454@%%%%%%%%%%%%%%%%%%%%%%%%%%%%%j%%J%%%%%%%%%%%%%%%%%%%%%%%%%%%%%%%%%%%%%%%%%
24379@%%%%%%%%%%%%%%%%%%%%%%%%%%%%%%%%%%%%%%%%%%%%%%%%%%%%%%%%%%%%%%%%%%%%%%%%%%
24303@%%%%%%%%%%%%%%%%%%%%%%%%%%%%%%%%%%%%%%%%%%%%%%%%%%%%%%%%%%%%%%%%J%%j%%%%%%
24228@%%%%%%%%%%%%%%%%%%%%%%%%%%%%%%%%%%%%%%%%%%%%%%%%%%%%%%%%%%%%%%%%%J%%%j%%%%
24153@%%%%%%%%%%%%%%%j%%J%%%%j%%%%%%J%%%%j%J%%%%%%%J%j%%%%%%%%%%%%%%%%%%%%%%%%%%
24077@%j%%J%%%%%Jj%%%%%%%%%%%%%%%%%%%%%%%%%%%%%%Jj%%%%%%%%%%%%%%%%%%%%%%%%%%%jJ%
24002@%%%%%%%%%%%%%%%%%%%%%%%%%%%%%%%%%%%%%%%%%%%%%%J%j%%%%%%%%%%%%%%%%%%%%%%%%%
23927@%%%%%%%%%%%%%%%%%j%J%%%%%%%%%%%%%%%%%%%%%%%%%%%%%%%%%%%%%%%%%%%%%%%%%%%%%%
23852@%%%%%%%%%%%%%%%%%%%%%%%%%%%%%%%%%%%%%%%%%%%j%J%%%%%%%%j%%J%%%%%%%%%%%%%%%%
23776@%%%%%%%j%%%%%%%%J%%%j%%%J%%%%%%%%%%%%%%%%%%%%%%%%%%%%j%%J%%%%%%%%%%%%%%%%%
23701@%%%%%j%%%%J%%%%%%%%%%%%%%%jJ%%%%%%%%%%%%%%%%%%%%%%%%%%%%%%%%%%%%%%%%%%%%%%
23626@%%%%%%%%%%%%%%j%%%J%%J%jJ%%j%%%%%%%%%%J%%%%%%j%%%%%%%%%%%%%%%%J%jJ%%%%%j%%
23550@%%%J%%j%%%%%%%%%%%%%%%%%%%%%%%%%%%%%%%%%%%%%%%%%%%%%%%%%%j%%J%%%%%%%%%%%%%
23475@%%%%%%%%%%%%%%%%%%%%%%%%%%%%%J%%%%j%%%%%%%%%%%%%%J%j%%j%%%J%%%%%%%%%%%%%%%
23400@%%%%%%%%%%%J%%%%%%%%%%%%%%%%%%j%%J%j%%%%%%%Jj%%%%%%%%%%%%%%%%%%%%%%%%j%%J%
23324@%%%%j%J%%%%%%%%%%j%%%%%%J%%%%%%%%%%%%%%%%%%%%j%%%%J%%%%%%%%%%%%%%%j%%%J%%j
23249a%%%J%%%%%%%%%%%%%%%%%j%J%%%%%%j%%%%%%J%%%%%%%%%%%%%jJ%%%%%j%%J%%Jj%J%j%%%%
23174@%%%%%%%%%%%%%%%%%%%%%%%%%%%%%%%%%%%%%j%J%%%%%%%%%%Jj%Jj%%%%%%%J%%%j%%%%J%%
23098A%%%jJ%%j%%%J%%%%j%%%%%%%%%%%%%%%%%%%%%%%%%J%j%%%%%%%j%%%J%J%j%%%%%%%%%%%%%
23023@%%%%%%%%%%%%%jJ%%%%%%%%%%J%j%%%%%%%Jj%%%j%%%J%%%%%%%J%%%%%j%%%%%%%%%%%%%J%
22948A%j%%%%%%%%%%%%%%%%j%%%%J%%%%%%%%%%%%%%%j%%J%%%%%%%%%%%%%%%%%%%%%%%%j%%%%J%
22872@%%j%%J%%%%%%%j%J%%%%%jJ%%%%%%%%%%%%jJ%%%%%%%%J%%j%%%%%%%%%%%%%%%%%%%%%%%%%
22797@%%%%j%J%%J%%%j%%j%J%%%Jj%%%%%%J%%%j%%%J%j%%j%jJ%%J%%%%%%%%%%%Jj%%%%%%%%%%%
22722@%%%%jJ%%%%%%J%%j%%%%%%%%%%%%jJ%%%%%jJ%%%%%%%%%j%%%%J%J%j%%%%%J%j%J%%j%%%J%
22646Aj%Jj%%%j%J%%%%J%%%%j%%jJ%%%%%%%%%J%j%%%%%%%%%%%%%%%%%%%%J%%%%%%%j%%j%%%%J%
22571@%%%%jJ%%%%%%%%%%j%J%%%%%J%%%%%j%%%%%%%%%%%%%%%%%%J%%j%%J%%%%%%%%%%j%j%%%%%
22496a%J%Jj%%%J%j%%%%%%%%%%%%%%%%jJ%%J%j%%%J%j%%%%%%J%%%j%%%J%%%%J%%J%%%j%%%j%%%
22420A%%%j%%%%J%%%%%j%%%%%%j%J%J%j%%%%%%%%%%%%J%%%%%%%J%JJ%%%J%%%%jj%j%%%%%%j%%%
22345Aj%%%%%%%%%j%%J%%%%%%%%J%%%%%%%%j%%%%JJ%J%%%J%J%JJJ%%%jjjj%jj%%%%j%%%j%%%%%
22270@%j%%J%%%%%%J%j%%%%%j%J%%J%%%%%%%%%%%JJ%%JJJJ%j%jj%%jj%%%%%j%j%%%%%%%%%j%%%
22194a%%%%%J%%J%j%%%%%j%jJ%%%%%J%%J%%%%%%J%%%%%%jjj%J%%%j%Jj%%%%%%%%%%%%%%%%%%J%
22119@%%%j%%J%%%%%%Jj%%%%%j%J%%%%%%%%%%%%%%%%j%%J%%j%%J%%Jj%%%%%%J%%%%%%%%%%%%j%
22044@%j%J%%jJ%%%%%%%%%j%%%%%J%%%%%%%%j%%%%%J%j%%%%%J%%%%%%%%%%%%%%%%Jj%%j%J%%%%
21968@%%j%%%J%%%%j%%%J%j%%%%%J%%%%%%j%%%%%%%%%J%j%J%%%%%%%%%%%j%%%%J%%%J%j%%%%%%
21893@%%%%%%%%%%%%%%%jj%%J%Jj%%%%J%%%%%j%J%%%%%%%%%j%%%%%%%%jJ%%%%jJ%%%j%J%%jJ%%
21818a%%%j%J%%%%J%%%%%%%%j%%%%Jj%%%%J%%%Jj%%jJ%%%%%%%j%%J%%%%%%%%%j%%%j%J%%%%J%%
21743@%%%%%j%%%%%%%%%%%%%%%J%%%jJ%%Jj%%%%J%J%J%JJ%%%%%j%j%%%%jj%%j%j%J%%%J%jj%jJ
21667a%%%J%%%%%%%j%%%%%%%%%%%%%J%%%%j%j%J%JJ%j%%%J%%%JjJ%%jJ%%%%%%%%%%j%%jJ%%j%%
21592@%j%%%%J%j%J%j%%J%JjjJ%j%J%%%%%j%%%%%J%%%%J%j%%%%%%%%%%%%%%J%%%%%%%%%%%J%JJ
21517Dj%%j%j%j%J%%%j%%%j%%J%%%%%%j%JJJj%%%%%JjJ%J%j%%J%j%%%J%J%%j%j%%jJ%%j%%J%%%
21441B%%Jj%%j%j%J%%j%%%%%%%J%jJ%%%%%j%J%J%%%%%%%%%j%%%%J%j%%%%%%%%%j%%%%%j%%%J%%
21366@%%%%%%%%%%%%%%%%%j%J%%%j%%%%%J%%%%%%%%%%%%%%%j%%%%J%j%%%%j%J%%%%%%j%J%%%%%
21291a%%%%j%%JJ%%j%j%%%J%%%j%%JJ%%%%%%%%%%%%j%%J%%%j%%%%%%%J%J%%j%Jj%%%%%%%%%%Jj
21215@%j%%%%%%%%%%%%%%J%J%j%%%%%J%%%J%%%%j%%JJ%j%%%%%%%%%%%%%%%j%jJ%%%j%J%%%%%%%
21140A%j%%%Jj%%%%%%jJ%jJ%%%J%%%%%%%%%%%j%%%%%%%%%%%%%JJ%j%%%%j%%j%%jJ%%JJj%%%%%%
21065@%%%%%J%%%%%J%%%%j%%%J%%%j%%j%%J%%%%%%J%%%%%%%%j%%%J%j%%J%Jj%j%%%%%j%%J%j%%
20989@%%%J%%%%%j%%J%%%j%J%%jJ%j%%%%%%%%%j%%%%J%j%%%J%%%%J%%%J%j%%j%%%%Jj%%JJ%j%j
20914@JJ%%%jjj%%%J%%%Jj%%%%J%j%%%%%%%%J%%%%%%%j%%%%%%%%%J%%%%%j%%J%%%%%%%%%%%%%%
20839Aj%%%%%J%%%%%jJ%%%%%%%j%%J%%J%%%%%jj%J%%%%%%jJ%J%%%%%%%%j%%%%%%%%Jj%%%%%%%%
20763A%%%%%%J%%%%j%%%%%%%%%%%%%%%%%%%%%J%%%%%j%%%%%%JjJ%%%j%%%%%%%%%%j%JJJ%j%%%%
20688B%%%%%%j%%%%J%%j%%%%%%jJ%J%%%%%j%%j%%J%J%%%J%jJj%%%%%%J%j%%%%%%%%%%J%%%%j%J
20613C%%%%%%%j%%jJ%%%%%%Jj%%J%%%%%%Jj%J%%%%%%%%JJ%%%Jj%%%%J%%%%%j%J%JJ%J%JJ%JKJ%
20537A6%%JJJ%J%JKKJKKKLKKLKKK%%jlkmlmmlkkkkjkjjjjj%%%j%j%j%%%J%%%%j%j%%%Jj%%%%%J
20463E%%j%J%%%%%jJ%%%%%J%%j%JJ%%J%%J%J%%Jj%JJ%%%%j%%%%jj%%%jJ%jJ%JJ%JJ%JKJJKKJKK
20388B7JJ%kkklklkjj%j%j%j%%%j%%%%%%%J%%jJ%%%j%%%J%%J%%%%J%%J%%%K%JJJJKKKJKLKLMNN
20313D8NPOPOMjnqrrqpnmllkkjkjj%j%%j%%J%%%%%j%j%%%J%j%J%J%J%%%%%J%J%%JJJJJKJJKKLL
20239C3LMLNNNPPONLlprrrppnllljkjjj%%jjj%j%j%%%%%%%J%%%%%%j%%J%%%%J%%j%J%%J%J%J%J
20165A6%JJJJJKKJKJLKLKjklllllkkjj%%j%%%%%%%%%j%%j%J%Jj%%j%%%J%%%%J%%%J%%%%%j%%%%
20091A4%J%%%%J%%%J%%j%%%%J%J%%J%%%%%JJ%KJ%%J%J%%j%j%%%%%%%%%J%J%JJ%J%%JKKKJLLLLM
20016E3NNOOPPPPNKlorrj0qponmlkkjjjjjjjj%j%%%%%Jj%%%%%%%%J%%j%%%%%%%J%%%%%J%%J%%%
19943C0%%J%%j%%%%%J%J%J%%%%%JJ%JJ%%%%JJ%%%J%%J%%J%J%JJ%JJJ%JJJJKJKJKKJKKKLKMMMNN
19869I6NPOOOOONMJjkmnooonnmmkkkkk%%j%J%JJJJJJJJJKJKKKKKLLMLLLLMMMNNOOOPQQRJ1J1J1
19797B39J2J3J3J5J5J7J7J8J6J5J2QMJkmmlljJKNPRJ2J3J6J6J9K1K3K6K9L2L6M0M4M7N3N7O2O8
19754A036P6Q3R3J04J16J31J46J65J85K08K32K58K87L18L49L82M17M50M81N07N23N23M96M34
19729H000L30J81jj98l77n17o05o44o38o05n54m97m38l82l32k88k52k20j95j72j53j35j20j06
19705A082r3q2p2o4n6n0m5m0l8l5l3l1l0k8k6k4k3k1j9j8j6j5j3j2j1j0rrpppooonnnnmmmlmll
19659G5lklkkkklkkjkkjjjjjk%jjkjjj%j%jjjjj%jj%j%%%j%j%jj%jj%jj%%%j%%%%%J%j%%%%JjJ
19585A6%%%%j%%%%%%%%%%%%j%%%%%%%%%%j%J%%%%%%%%J%%%%%%j%%%J%%%J%%%%%j%%%j%J%%%%%%
19510A5%%J%j%J%%JJ%%Jj%%%j%%%%%%%%%%J%JJ%j%jJ%%%%%Jj%%%%%%%%%%%%J%%%%%J%%%%%%%%%
19436B1J%J%%JJ%JJ%JJJ%%%J%%J%j%j%jj%%%%%%%%%J%J%J%%J%J%J%%%%%%%j%%%%%%%%%J%%%%J%
19362C5%J%J%J%%JJ%J%JJJ%Jj%J%J%J%j%%%J%%J%JJJJ%JJJJJKJJJjJ%%%%%j%j%%%jj%j%J%%%J%
19287E9%%JJ%JJJJ%%%J%%%%%%%%%J%%J%JJJ%%%JJJJKJKJJKJKKJJJJ%J%%j%j%j%J%%%%J%JJJJJJ
19213I9J%JKJJJJJKJ%JJJJJJ%%KJJKJKKKJJKKKJKKJKJKKKJKKJKKKLKLKLKKKLLLLLKMLMMLMNMNN
19139B42NNNOONOPOOPOQPPQQRRRJ0J2J2J2J3J3J4J5J5J7J8J9K0K1K2K3K4K7K9L1L5L7M1M5M9N5
19092A006O1O7P5Q3R3J05J16J32J47J65J86K09K35K65K96L32L72M15M65N20N82O48P20P91Q61
19067H947R20R56R50Q82P45N45L10P7j33l25n11o96q65r86j043j034r72q82p80o75n79m91m14
19043C946l49k94k46k07j73j44j19r8p8o1m7l4k1r%J1K0L0M0N1O2P5Q7J03J18J37J57J78K04
19014C339K32K65L01L43L90M43N02N70O43P26Q18R18J030J150J279J414J546J673J786J888
18993B1256J970K020K006J883J621J212O88J11m55r52j347j632j830j973k075k118k077j949
18975A6359j756j535j318j123r67q50p67p08o54n99n39m76m16l60l11k66k29j96j67j44j23j04
18953B751q7p1n6m2k7j4KJ6L0M5O2P9R7J19J41J67J94K26K60K97L40L87M38M95N57O26P01P85
18924H518Q76R73J074J175J271J345J382J349J223R86O54K65j30n05q53j168j431j606j672
18905A3726j635j526j375j209j047q97p65o50n54m72m04l48l00k60k25j95j70j48j30j14j00q7
18882A115p9o9o2n6m9m5m1l6l2k8k4k2j9j8j7j7j6j8j7j7j7j5j5j4j4j5j5j7j8j9j9j8j7j6j4
18847A90j3j2j1rrpooommmkkjjj%J%JJKKLLNMMMMLK%jmorj0j0j1rj0qqopnomnllklkkkkjkjj%j
18781a3j%%%%%j%%%%%%%%JJJKJKJKJJJJJ%Jj%%jkkkllkkkkkkjkj%jjj%j%%%%%J%J%JJJJJJJ%%j
18706b4jjkkkkjjjjj%j%%%%%%%%J%%JJ%J%%%%%%jjjjjjj%j%%%%%%%%%%%%%%jj%%%%%%%J%J%%%%
18632d4%J%%%J%%%%JJ%JJJKJKJLKL%jklllkkjjjjjj%%%jj%%jjj%%%J%%%J%J%%%J%%%%J%%J%j%%
18558d5J%%j%%%%%J%%j%jJ%%%%%%j%J%%%%%j%%%%%%%%%j%J%j%%J%%%%J%J%jJ%J%%%%%%%%Jj%J%
18483d2J%%J%%%J%JJ%J%JJ%%JJJ%%%%%jjjjjjkj%%j%j%%%%%%%%%%%%J%%J%jJ%%j%%%J%%%JJ%J%
18409c7%%%%J%J%JJ%J%JJKJKKJJK%J%%J%%%j%jjj%jj%%%%j%jjjjj%j%%j%%j%%J%%J%J%%%%%%%%
18335b9%J%JJ%JJ%JJJJJ%JJKJJJ%JJ%%%jj%jj%j%j%%%%j%jJ%JJ%JJ%JJJJJJJJ%JJ%JKJ%J%JJJJ
18260FJJJKJKKJKJKJJJJ%JJJ%J%JKJJJJJKLKKLLLKLLLLLKLKKKLLMLMMNNNNNOOOPOPQQRRJ0J1J1
18188B34J1J3J4J4J6J7J8J9K1K2K4K4K7K8L0L3L5L9M2M7N1N7O3P1P9Q6R7J08J21J36J51J70J90
18155B108K14K41K72L08L49L95M47N07N73O48P32Q23R22J030J141J255J358J435J458J399J235
18133A8850R69O29K54j27n06q79j215j472j611j624j543j403j237j070r12p72o51n48m64l94
18113D274l35k89k49k17j88j63j42j23j05q9p4o0m7l3j9nQK3L8N3P0Q7J07J28J53J78K07K38
18084C426K74L14L58M09M67N30N99O74P47Q18Q85R46J012J096J209J354J522J704J872J995
18064B2211K037J975J816J589J320J008O32J67l69r28j451j884k184k330k335k236k076j890
18046A5072j701j512j330j158r99q58p37o31n41m65m01l46l01k61k29k01j81j61j46j32j17j03
18023B561q9p6o3n2m1k9j8oOJ9L3M8O4Q2J01J23J47J73K04K37K74L15L59M08M62N23N90O62P37
17994G754Q16Q92R61J008J011R48Q07N95L49J08j03k97n00p22r42j118j210j210j141j030r03
17972F073p76o60n58m70l96l35k85k44k09j81j57j37j21j07r5q7q0p4o8o5n9n5n1m7m3l9l6l4
17944F04l1k8k6k5k2k0j9j7j6j5j3j2j0j1j0rrrqqppppooooononmnmmlmmkllllllllllklllklk
17886A34jkklkkkkkkkjkkjkjjjjkjjkjjjj%jjj%jjjjj%jjjj%jjjjjjj%jjj%j%jjj%jj%jj%%j%j
17813E8%%jj%%jj%j%%jjj%%%jj%j%%%%jj%j%%jj%j%j%%j%j%%%j%%%%j%%%j%%%%%%%%%%%%J%%j%
17738C5%%%%jjjjjjj%j%%%%%%%j%%j%%%jj%%j%%%%j%%J%j%%%%%%j%%j%%%%Jj%j%%%%%%j%%%%%%
17664A7j%%%j%%%%%Jj%%%j%%%%%%%%%%%%%%j%%%%%%%%%j%J%j%%j%%%j%%%%%J%j%%%%%%j%j%%J%
17590I%%%j%%%%Jj%%%%%%%%j%%%%%%j%J%%%%%%%%%%%%%%%%%%j%j%%%%%%%%%%%%%%%%%%%%%j%%%
17514DJ%%%jJ%j%%%%%j%%%%%%%%%%%%%j%%%J%%%j%%%%J%%j%%%%%%J%%j%%%%%j%%%%J%%%%%%%j%
17439A%%%%j%J%%%Jj%Jj%%%%%%Jj%%%%%%%%%%%%J%Jj%%%%J%%%J%%%J%JJJJJJKKKKKLLLMNNOOPP
17364G0QRPPNL%loqrrrqponmmlkkkkkjjjj%j%j%%j%%%%%%%%J%KJ%JJKKKKKKMLMMNMNOPQQRJ0J1
17291A17J2J1J2J0ROM%mqj0j3j3j4j3j1j0rqqoomnmllkkkkkj%jjjjjj%j%%%%%%%J%%%%%JJJJJJ
17229A8KJKKLLLLMNNNOOONMLJkloppoponmmlmklkjkjj%jj%j%%j%j%%j%%j%J%jj%%j%%%%%%%%%%
17155B%%%%j%j%J%%%%j%Jj%%%%%J%%j%%j%%%J%%%%%%%%%%%%%%%J%%%%%%%%%%%%%%j%%J%%%%%%%
17080Aj%J%%%j%J%%%j%%%%%%J%%j%%%%%%%%%%j%J%%j%%%J%%%%%j%J%%%%%%%%%j%%%J%%%%%%Jj%
17004@%J%%%%j%%J%%%%%%J%%j%j%%%%%%%%j%%%%J%%%%%%%%%%%%%%jJ%%jJ%%%%%j%%%J%%%%%%%%
16929@%%%%%Jj%%%%%%%Jj%%jJ%J%%j%%%%%%%%%%%%%j%%%J%%%%%%%%%%%%%%%%%%j%%%%%%%J%%%%
16854@j%%J%%%%%%%%%%%j%%%%%%%%J%%%%%%%%%%%%%J%%j%%%%Jj%%%%jJ%J%j%%%%%%%%%%j%J%%%
16778@%%%%%%%%%%%%%%%%%%%%%%%%%%%%%%j%%J%%%%%%%%%%%J%j%%%%%%%%%%%%%%%%%%%%%%%%%%
16703@%%%j%%J%jJ%%%%%%%%%%%%%%%%%%%%%%%j%%%%J%%%%%%%%%%j%%J%%%j%%J%%%%%%%%j%J%%%
16628@%%%%%%%%%%%%%%%%%%%%j%%%%J%%%%%%%%%%%%%%%j%%%J%%%%%%%%%%j%J%%%%%%%%%%%%J%%
16552A%%%j%%%%j%J%%%%%%%J%j%%%%%%%%%%%%%%j%J%%%%%%%%%%J%%j%%%%%%%%%%%j%J%%%%%%%%
16477@%%%jJ%%%%J%%j%%%%%%%%%%%%%Jj%%%%J%%%%%%%j%%J%%%j%%%%%%%j%J%%%%%%%%%%%%%%%%
16402@%J%j%%%%%%%%%%%%%%%%%%%%%%%j%%J%%%j%%%%%%%%%%%%%%J%%%%%%%%%%%%%%j%%%J%%%%%
16326@%%j%%J%%%J%j%%j%%%J%%%%%Jj%%%%%J%%%%%%%%%%%%J%%JJ%JJ%JJ%JJKKKLKLLMMNOPPRR
16252G8J0J0J0J0POJknrj0j1j2j0j0qponmlllkkjkjj%j%%j%%%%%J%JJJKJKJJJJJJJKKKLKJJKJJ
16187D6JJ%J%j%J%KJLLLNMNNOOPQPONLL%%kkmlnoopqpoommllkkjk%%%%J%%%J%%jjjkklkklkkjj
16113B7jjjkjjkjj%%j%J%%JJ%JJJJKLKMLMMNOPQQRJ0J0J0J0PN%loqj1j2j1j1j0rponmmllkkjkj
16048A8jk%jjj%j%j%j%jj%%%j%%%%%j%%%%j%%%%%jJ%%j%%%%J%%%%%j%%%%%%J%%%%%%j%%%%%%%%
15973C%%%%%%%%%%j%%%%%%%%%%%%%%%%%%%%%%%J%%%%j%%Jj%%Jj%%%%%%%%%%%%%%%%%%%j%%J%j%
15898A%%%J%%%%%%%%%%%%j%%%%%jJ%%%%%%%%%%%%%%%%%j%J%%%J%%%%%%%%%%j%J%%%%%%%%%%%%j
15823A%%Jj%%%%%%%jJ%%%%%%%%%%%%j%%%%%%%%%%%J%%%%%%%%%%j%%%J%%%%Jj%%%%%%J%j%%%j%J
15747A%%%%Jj%%%%%%%%%%%%%%%%%%%%%%j%%%%%J%%%%%j%%J%%%%%%%j%%%J%%%j%%%%%jJ%%%%J%%
15672A%j%J%%j%%%%%%%%%%%J%%j%%%%%%%j%%%J%%%jJ%%%%%%%%%%%%%%%%%%%%%%%%%%%%%J%%%%%
15597A%J%J%J%J%JJJJKKKKLLLJ%klmlljkkjjj%j%%%%%j%%%%j%%%%%%%%%%%%%%%%%%%%j%%%%%%%
15521@%%%%JjJ%%%j%%%J%j%%J%%%%%%%%%%%%%%%jJ%%%%%%%%%%%%%%%%%%j%%%%J%%%%%%j%J%%%%
15446AJ%%JJ%JJ%JJKJKJ%%jkjjjjjjj%j%%j%%%j%%%%%%%%%%J%%j%%%%%J%j%%%J%%%j%%%%%J%%%
15371Bj%%%%%%%%%%j%%%%%%%%%%%%%%%j%J%j%Jj%%J%%%%%j%%%%%J%%%%%%%%%%%%%%%%%%j%%J%%
15295@%%%%%%j%%%J%J%%j%%%%%Jj%%%%%%%%%%%%%%%%%%%%%%%%%%%%j%J%%%j%%J%%%%%jJ%j%J%%
15220@%j%J%%%%%%%%%%%%%%%%%%%%J%%%%J%%J%%J%J%%JJJ%JJKKKLLLMMMNOPPRJ0J1J1J1RNjpj1
15150A09j3j4j2j1rqomnllkjkjkjjk%jj%j%jj%%j%%%%%%%%jJ%Jj%j%%%%%%%%j%%%J%j%%%%%jJ%
15081A%%%%j%%J%%%%%%%j%%%%J%%%%%%%%j%%%%%%%%%%J%%j%%%%%J%j%%%%%%%%%%%j%%%%%%J%%j
15005aJ%%%%J%j%%%%%%%%%%%%Jj%%j%%%%%%%J%%%Jj%%%%%%%%%%%%%%%jJ%%%%%J%%%%%%j%%jJ%%
14930@%%%%jJ%%%%%%%%%%%%%%%j%%J%j%JJ%%%%j%Jj%%%%%%%%%%j%Jj%J%%%%%%%%%%%j%Jj%%%%%
14855aJ%%%%%%%%%%%%%%%%%%%%%%J%%%j%%%%%%%%%Jj%%%%%%%%J%%%%%j%%%%jJ%%%%%j%%J%%%%j
14779a%JjJ%%%%%%Jj%%%%%%%%%%%%%%%%%Jj%%%%J%%j%%J%%%Jj%%%%j%%%%%%%%%%%j%jJ%%J%%j%
14704a%%%%%%%J%%%%%%%j%J%%%%%%Jj%%%%%%%%%%%%%J%%%J%%%%%%%j%%%%%%%%%j%%%%%%%%%%%%
14629@%%%jJ%%%j%J%j%Jj%J%%%%%%%J%j%%%%%%%%%%%%%%%J%%j%%J%%%j%%%%%%%%%j%J%%%%%%%j
14553a%%J%%%%%%%%%%%%%%%%%%%%%%%%%%%j%%%J%%%%%%%%%%%%%%%%%%%%%%%%%%%%%%%%%%%j%%J
14478@%J%%%%%%%%%%%%%%%%%%jJ%%%%%%%%j%%%%%%%%%%%%%%%j%%%%%J%%%j%J%%%%J%%%%%%%%J%
14403B%%j%j%%JJ%%%%%%%%%%%%j%%%%%%%j%%%%%%%%%Jj%%%%J%j%%jJ%%%%J%%%%%%%%%%%%%j%%J
14327A%%%jJ%j%J%%%%j%J%%%%%%%j%%%%%%%%J%%%%j%jJ%%%%%%%%j%J%%%%%%%%%%%%jJj%J%%%%%
14252@%%%%%%j%%%%%%J%%%%%%J%%jJ%%%j%%j%J%J%%%j%%%%%%Jj%%%%%%j%%J%%%%%%%%J%%%j%%%
14177@%%%%%%%%%%%%%%J%%%%%j%%%j%%%%%%%%J%%%%%%%%%%%%%%J%%%%j%%%%%%%%%%%%%%%j%%J%
14101@%%%%%%%%%%%%%%%%%j%J%%%%Jj%%%%%%%%j%%%J%%%%%J%%%%%%%%%%%%%%J%%%%%%J%j%j%%j
14026@%%%%%%%%%Jj%%%%%%%%%%%%%%%%%%j%J%%%%J%%%%%%%%%%%%%j%%%%j%%%J%%%%j%%%%%J%%%
13951@%%%Jj%%%%%J%%jj%J%j%%J%%%%%%%%%j%J%%%%%%%%J%j%%%%%%%%%%j%jJ%%J%%%%%%%%%%%%
13875@%%%%%%%%%%%%%%%%%%%%%%%%%%%%%%%%%Jj%%%%J%%%%%%j%%%%%%%%%%%%%%%%%%j%%%%j%%J
13800a%%%J%%%%%%%j%%%J%j%%%%%%%%J%%%%%%%%%%%%%%%%%%%%%%%%%%%J%%%J%j%%%j%%j%JjJ%%
13725@%%%%%%%J%%j%%%%%%%J%%%%%%%j%%j%%J%J%%%%%jJ%%%%%%jJ%%%j%%%%%J%%%j%%%%J%%j%J
13650A%%%%jjJ%%%%%J%%%j%J%%%%%%%%%%%%j%%%%%%j%%J%%%%%%%%%%%%%j%J%%%%%%%%%%%%%%%%
13574@%%%%%%%%%%%%%%%%%%%%%%%%%%J%%%%%%%%%%%j%%%%%%J%%j%%%%%%%%%j%J%%%%%%J%%%%%j
13499@%%%%%%%%%%j%%%%J%%%%%%%%%j%J%%%%%%%%%%%%Jj%%J%j%j%J%%J%%%%%%j%%J%%%%%j%%%%
13424@%%%%%%%%%%%%%%%%%%%Jj%%%%%%%%J%%j%%JJ%%%%%%j%%%j%%%jJ%%%%%%%%%%J%%j%%%%%%%
13348@%%%Jj%%%%%Jj%%%%%%%Jj%%%%j%%J%j%J%%%%%%%j%J%j%%J%%%%%%j%%J%%%%%%jJ%%J%%%j%
13273@%%%%%%%%%jJ%%%%%%j%J%%%%%%%%j%J%j%J%%%%%j%%J%%%%%%%%%%%%%jJ%%j%%J%%J%j%%%J
13198A%j%J%j%J%%%%j%%%jJ%%%%j%J%%J%%%j%%%%j%J%j%%Jj%%J%%%%%%%j%%%Jj%%j%J%%%%J%%%
13122@J%%%%%%%%%%%%j%J%%%%%%j%%%%%%%%%%%%j%%%J%%%%jJ%%%%%%%j%%J%%%J%%j%%%Jj%%%%%
13047@%%%%%j%J%%%%%J%%j%j%%J%%%%%%J%%%%%jJ%%%%%%%j%Jj%jJ%%%%J%%jJ%%%%%%%%%j%%%%%
12972@%%%J%j%%j%%%%J%%%%%%%%%%Jj%%%J%j%%%%%%%%%%%%%%%%%%%%%%%%%%%%%%%%%%%%%%%%%%
12896@%%%%%%%J%%%%j%%%%j%%J%%%%%%j%%J%%Jj%%%%%%%J%%j%%%%jJ%%%%%%%%%%%%j%Jj%J%%%%
12821@%%%jJ%%%%%%j%%J%J%%%%%j%%%%%%J%%%%%%%%j%%%%j%%%%J%%%%%%%%%J%%%j%%%%%%%%%jJ
12746@%%%jJ%%%%%%%%%%%%%Jj%%j%%%%Jj%%%%J%J%%%%j%%%%%%%%%%%%%%%%%%%%%%%%%jj%J%%%%
12670aJ%j%J%%%%%j%%%J%%%j%J%%%%%%%j%%J%%%%%j%%%%%%%%%%%%%J%j%%%%%J%%j%%%%%%%%%%%
12595a%J%%%%%%%%%%%%%%%%%%%%J%%%%%jj%%J%%%%%%%%%j%J%%%%%%%%%j%%%J%%%%%%%%%j%J%%%
12520@%%%%jJ%%%%%%%%%%%%%%%%J%%%%%%j%%%%%j%%%%J%%%%%j%J%j%J%%%%%%%%%%%%%%%%j%%%J
12444@%%%%%%%J%%j%%%%%%%%J%jj%JjJ%J%%%%%%%%%%j%%%%%%%%%%%%%%J%j%%%%%J%%%%j%%%%%%
12369@Jj%%%%%%%%%%j%%%J%%jJ%%%%%%%%j%%%%J%%%%%%%%%j%J%%%J%j%%%j%%%J%J%%%j%%%%%%%
12294@%%%%%%%J%j%J%j%%Jj%%Jj%%%%%%%%%J%%%%j%%%%%%%%%J%j%j%%J%%%j%J%J%j%%%%%%%J%%
12218A%%%%%j%%%%%%J%%j%%Jj%j%Jj%J%%%%J%%%%%%j%%%J%%j%%%j%%%%J%%%%%%%%%J%j%%j%%J%
12143@%%J%%%%%%%%j%%%%%%%%%%J%j%%%%%%%%%%%%%%%%%%%%%%%%%j%J%%j%J%%j%%%%J%%j%%%%%
12068a%%J%jJ%%%%J%j%%%J%%%%j%%%JjJ%%%%%%j%%j%J%%%%J%j%%j%J%%Jj%%%%%%%%%%jJ%%%Jj%
11992@j%%J%%%%%%%%%%%%Jj%j%%J%%%%%J%j%%%%%%%%%%%J%j%J%%j%%%%%%%%%%%%%%%%jJ%%J%j%
11917@%%j%%%%J%%%%J%j%%j%%%%%J%%%%j%%J%%j%%J%%%%%jJ%j%%Jj%%%%J%%%%J%%%j%J%%%%j%%
11842@%%%%%%%j%%%%%J%%%J%j%%%%%%Jj%J%%%%%j%%%%%%%%j%%%%%%%J%J%%j%%%%%%%%%%%jJ%%%
11766@%%jJj%%J%j%%%%%%%%%%J%%j%%%%J%%%%%%%j%%J%%%%%%j%%J%%%%j%%%%%Jj%%J%%%JjJ%j%
11691@J%j%%%%%%%%%%%j%%%%%%J%%%jJ%%%%%J%%%jJ%%%j%%%J%%%%%%%jJj%%%J%%%%j%%%%%%%%%
11616@%%%%%%jJ%%%%%%%%%%j%%J%%%%%%J%j%%%%%%%J%j%%jJ%%%J%%%j%j%%%%%%%J%%%%J%%%j%%
11541@%%%%%%%%j%%J%%%%%%%%j%%%%J%%%%%%%%%jJ%%%J%j%%%J%jJ%%j%%%%j%%Jj%J%%%%%%Jj%%
11465@%%%%J%%%%%j%%%%%%j%J%%%%%%%%%jJ%%Jj%%%%%%%%%%%%%J%%%%j%%Jj%J%j%j%J%%%%%%%%
11390@%%%%Jj%%%j%JJ%%%%%j%%%%%%%%j%%%%%%J%%%%%%%%%%%j%J%%%%J%%j%%j%Jj%%jJ%%%%J%%
11315@%%%%jJ%%%%%%%%%J%%%%j%J%%%%%%j%%%J%j%J%%j%%%%%%%%%%%%%%%%%%%%%%j%%%%%%J%%%
11239@%%%%%%J%%%%j%%%%%Jj%%%%J%%%%j%%%%%%%%%%%%%%%%%%%J%j%%j%J%%%%%%%%%j%%%J%%j%
11164a%%%J%%%%%%%%%%%%%%%%%%%%%j%%J%%%%%%%%%%%%%%%%J%%%%%%%j%%%%%%%%%j%J%%%%%%%j
11089a%%J%%%%%%%%%%%%%%%%%J%%%%j%%%%%%%%%J%%%j%j%jJ%J%%%%%%%%j%%%%%%%%%%%%J%%%%%
11013@%%%%j%J%%%%J%%%%j%j%J%%%%%%%%%%j%J%%%%%%jJ%%%%%%%%%%j%J%%%%%%%%%%%%%%%j%%%
10938a%%%J%%j%%%%%J%%%%%%%%%%%%%%%%%%%%%%%%J%%%%%j%jJ%%%%%Jj%%%%%%jJ%%%j%J%%%%%%
10863@%%%j%%%J%%j%%%J%j%%%%%J%j%%%J%j%J%%%%%%%%%%%%%%%%%%%%%%%%%j%J%%%%jJ%J%%j%%
10787@%%Jj%%jJ%%%%j%J%j%%%%J%%%%%%j%%%%%J%%%%%J%j%%%J%%%%%%%%%j%%%%%%%%%%%%%%%%%
10712@%jJ%%%%%J%%%%j%%J%j%%%%%%j%%%%%J%%%%%j%%%Jj%%%%%J%%%%%%%%%J%%%%j%jJ%%%%%%%
10637@%%%Jj%%%%%%%%%%%%%%%jj%%%%%%J%%J%%J%%%%%%%%%j%%%%%%%%%%%%%%%%%Jj%%%%%J%j%%
10561@%%%%%J%%%j%%%%%%%%%%%%%%%%%%%%%%%J%j%%%%J%%%j%%%%%%%%J%%%%%j%%Jj%%J%%j%%%%
10486@%%%%%%%Jj%%%%%%j%J%%%%%%%j%JJ%%%%%%j%%%%%%%%%jJ%%%%%%%%%%%j%%%%%%%%%%%%%J%
10411@j%J%%%%%%%%%j%%%%J%%%%jJ%%%%%%%j%%J%j%J%%J%%j%%%%%%J%%%%j%%%%%%%%%%%%j%J%%
10335@%J%%%%%%j%%%%Jj%j%%J%%%%%%%%%%%Jj%j%%%%%%%J%%%%%%%%%%%%j%%%%%J%%%%%%%%%%%%
10260@j%%%J%%%%jJjJ%%j%J%%%%jJ%%j%J%j%%%J%%%%%%%%%%%%%%%%%%j%%%J%%%%%%%%%%%%%%J%
10185A%%%%%%%j%%%%%%%%%j%%%%%J%%%j%J%%%%%%%J%%%j%J%%%j%j%J%%%%j%%%%%J%%%%%%Jj%j%
10109aJ%%%%%%%%%%%j%%%%%%%%J%%%%%Jj%%%%Jj%%%%j%%J%%%%%%%%%%%Jj%%%%%%J%%j%%%%%%J%
10034A%%%%%%%%%%%j%%%%%%%%%%J%j%%%J%%%%%%%%%%j%%%%%J%%%%%%%jJ%%%J%%%%%%%%%%%%%%%
9959BJ%%%%J%%%J%%JJ%JJJJJJKKKKKKLLLLLJ%klmlmllkkkjkj%%j%j%%%%%j%%%%J%J%%%%J%J%JJ
9882A2JJJKKKKLLKKKKJJJ%jjkjkkkjk%j%J%KJKKKMLLLLLLLKJJ%%kkllllllklkkk%%%JJJKKJJJ%
9807D1J%%J%JJKKJKJJJJ%Jjklmlmkljkkkjkj%%%J%JJ%JLKLKLLMMNNOOOOONMKKJ%jjjjjklmmopq
9732F7ooonmlllkjjjjjj%%J%JJJKJKKKLKLKLLKK%%jkjkjjjjj%jjj%j%jjkjjkj%jJJJKKKKKKJKK
9656E1KKLJKJ%kjllmlmmllkkjjjj%%JJKJKKKKKJJjjkjlkklkllkkjjjjjj%j%%j%%%%%%J%%%%J%%
9581H%%J%%JJKJKJKKKKLLLKKJjllmlmkkkkjkjjjj%j%j%%j%%%%%%%%%%%%j%%%%%%%j%%%%%%%%%j
9505@%jJ%%J%j%%%%%%%J%%%%%jJ%j%%J%%%jjJ%%%%%%%%%%%%%%%J%j%J%j%%%%J%%%%%%j%%J%%%%
9428A%%%%%%%%%%%%j%%%%%%%%%%%%%%%%%%j%%%J%%%%%%%%%%%%%%%%%%%%%%J%%%j%%%J%%%j%%%%
9352@%%%%%%%%J%%jJ%%%%%j%%%%%%%%%%%%%%%%jJ%%%%%%j%%%%%%%J%%%%%%%%%%%%j%%J%%%%%%%
9276@%%%J%%%%j%%j%%%J%%%%%J%%j%Jj%%%j%%%%J%%%%j%%J%%%%jJ%jJ%%%j%%J%j%%J%%%%%%%J%
9199Aj%%%%%%%%%%%%%%%%%%%%%%j%%%%J%%%%%%%%%%%j%%j%J%J%%%%%%%%%%%J%j%%jJj%%J%%%j%
9123aJ%j%%J%%jJ%%%%%J%%j%%%%%%%%J%j%%%%%%%%%J%j%%%%%%%%%%jJ%J%%j%%%%%j%J%%%%%%%%
9047@J%j%%%%%%%%%%J%%%j%%%%%%%%%%%%%%%%%%%%%%%%%%%%%%%%J%j%%%J%j%%%%%jJ%%%J%j%%%
8970@%%%%%%%%%%%%Jj%%%%J%%%%%%%%%%%jJ%%j%%%%%%%%%%%%%%%%%%j%J%%J%j%j%J%j%J%%%%%%
8894@%%%%%%%%%%%%%j%%%%%%%%J%%%%%%j%JjJ%%%%%%%j%J%%%%%%%%%%%j%%J%%%%%%%%%J%%%%%%
8818A%%j%%%%%%%%Jj%%%%%%%%%%%%%%%%%%%%%%j%%%%J%%%%%%%%%%%%%%%%%%%%%%%%%%%%%%%%%j
8741a%J%j%%%%J%%%%%%%%Jj%%%%j%%%%%%%%%%%%J%%J%%%%j%J%j%%J%%j%%%%%J%jJ%%j%%%%%%%%
8665@%%%%%J%%%j%%%%j%%J%%%%%%%%%%j%J%%%%%%%%%%%%%%%%%J%%%j%%%%%%%%j%J%%%%%jJ%%%%
8589@%J%j%%%%%%%%%%jJ%%%%%%%j%J%Jj%%%%%%%%%%%j%%%%%J%%%%%%%%%J%%%j%%%J%%j%%%%%%%
8512@%%%%J%%%%%%j%%%%%%%Jj%%%J%%%j%%Jj%%%%%%%%%%%%%%%%%J%%j%%%%%%%%%j%%%J%%%%%%%
8436@%%%%%%%%%J%%j%%%%%%%%%%%%%%%J%%%%J%%%%%%%%%%%j%%%%%%j%%%%%J%%%jJ%%%%j%%%%%j
8360a%J%%%%%%%%%%%%%%%%%%%%%%%%%%J%j%JJ%jJ%%%%%%%%%%%%%%j%%%j%%%Jj%%j%%%J%%%%%%%
8283@%%%%%%%%%%jJ%%%%%%j%J%%%%%%%%%%%%%%%%%%%%%%%%%%%%%%%%%%%%%%%Jj%%%%%%%%%%%%%
8207@%J%%%%JJ%%%J%%J%%%j%%%%j%jj%%%%%J%j%%%%j%%%%%J%%%%%%%j%%%%%%J%%%%%%J%j%%%%%
8131A%%JjJ%%%%%%J%%J%%%%%J%j%%j%%%%%%%j%%%%j%%%%%jJ%j%%J%j%%%%%%%%%%%%%%%%%%%%%%
8054@%%%%%%%%%%%%%%%%%%%%Jj%%%%%%%J%j%%%%%%j%J%%%%%%%%%%%%%%%j%%%%%J%%%%%%%%%%%%
7978@%%%Jj%%%%%%%%%%%%%J%%%j%j%J%%%%%%%%%%Jj%%J%j%%%%%%%%%%%%%%%%%%%jJ%%%%%%%%%%
7902@%J%%%%j%%%%%%%%%%%%%%%%%%J%%j%%%%%%%%%%%%J%%%j%jJ%%%%J%%%jJ%%%j%J%jj%%%J%%%
7825@%%%%%%%%j%%%%J%%%%j%%%%%%%%%J%%%%J%j%%j%%J%%%%%%%%%%%%%%j%J%%%%%%%%%%%%j%%J
7749@%%%%%J%%j%%%%j%%%%%%%%%%%J%j%%%%%Jj%%J%%%%%%%%%%%%%%%%%%%%%%%%j%%J%%%%%%%%j
7673a%%J%%%%%%%%%j%%J%%j%%J%%%%%%%%%%%%%%%%%%%%%j%%%%J%%%%%%j%%%%J%%%%%%%%%%%%%J
7596A%j%%%j%%%%%JJ%%%%%%%%%%jJ%%%j%%%J%%j%%%%%%%%%J%jj%%J%j%jJ%J%%%j%%J%j%%%%%%%
7520a%%%%%J%j%%J%%%%%%%%%%%%%%%%%%%%%%%%%%%%%%%%J%%%%j%%%%%%%%%%%%%%%%%%%%%%%%%%
7444@%%%%%%%%%%%J%j%%%%%J%%%%%j%j%%J%%%%%%%%%%%j%%%J%%%%j%%%%J%%%%%j%%%J%%%%%%jJ
7367@%%%%%%%%%J%%j%%%%jJ%%%%%j%%%%%%%%%%%%%J%%%%%%%%%%%%%j%%%%%%J%%%%j%J%%%%%%%j
7291a%J%%%%%%%%%%%%%Jj%%%%%%%%%%%%%%%%%%%%j%%%%J%%%%%%%%%%J%j%%%J%j%%%%%%%%%%J%%
7215A%%j%%j%J%%%%%J%%%%%%%%j%%%%%%J%%%%%j%%%%%%%J%%jJ%%%%j%%%J%%%%%J%j%%%%%%%%%%
7138A%j%%%%jJ%%J%j%J%%%j%%%%%%%%J%%%%j%%J%%j%%%%%%%J%%%%Jj%%%jJ%j%%%%%J%j%J%j%%%
7062@JjJ%%%%%%%%%%%%%j%%%%%%%%%%%%%%%%%%%j%J%J%j%J%%j%jJ%j%%J%%%%%%%%%%%%%%%%J%j
6986@%%%%%%%%%%%jJ%J%%%j%%%%%%%%%%%%J%%%j%%%%%%%j%%%%%%%%%%%%%%%%%%%J%%jJ%%%%%%%
6909@%%%%%jJ%%%%%%%%j%J%%%%%%%%%%J%%%%%j%J%jj%%J%%%%%J%%%%j%%%%%J%j%%%%%%%%%%%%%
6833@%%%%%%%%%%%%%%%%%%%%%%%%%%J%%j%%%%%j%%%%J%%%%%%j%%%%%J%%%%%%%%J%%%j%j%J%%j%
6757aJ%%%%%%%%%j%J%%J%%%j%%j%%%J%%%%%j%%J%%%%%%j%%J%%%%%%j%J%%%%%j%%J%%j%%J%%%jJ
6680@%%%J%%j%%%%%%%%%%%%%%J%j%%%%%%%%%%%%%%%%%%%J%%%%%%%J%%%%%%%%%J%J%J%J%JKJJJK
6604A4KLKLMMNOOPQQOLjnj0rj0qpnnmljjjkjjjj%%%j%%%%%%%%%j%J%%%%%j%J%%%%%JJ%JJKJJJK
6531A5JKKLMMNNOPQRJ0J2J4J5J7J7J2Mnj4j7j8j5j2ronk%KLOORJ2J3J6J5J1Lqj7k1k0j7j3j1rp
6479D2onmllkkjkjjj%%%%%%J%%j%%%JKJJJKKLLLMNNNPQRJ0J0J0PLjllkKNQJ2J4J4J1Jj0j8k1k0
6415A02j7j3j1rponnllkjkjkjjj%j%j%j%jj%%%j%%%jj%j%%J%j%%%%j%%%%%%%%%%%%%%%%%%%%j%
6343A%%%%%%%%%%%%%%j%%%%J%j%J%%%%%J%j%jJ%j%%%%%%%%J%%%%j%%%%%%%%%j%%%%J%%%%%%%%%
6267@j%J%%%%%%%%%jJ%%%%%%%J%j%j%%J%%%%%%%J%%j%%%%%j%%%%%%%J%%%%%%%%J%j%%%j%%J%%%
6191@J%%j%%%%%%%%%%%%%%%Jj%j%J%%%%%%%J%j%%%%%%%%%j%%%%%J%%j%%%%%%%J%%%%%%%%%j%%%
6114a%J%%%%%%%%%%%%%%%%%%%%j%J%%%%j%J%%%j%%J%%J%%%%%%%%%%%j%%%%%%%J%j%%J%%%%%j%%
6038@%%%%j%%%J%%%%%%%%%%%%%%%%J%j%jJ%%%%%%%%J%%j%%%%%%%%%%%%%%%%%%%J%%%j%%%J%%j%
5962@%%%%%%%%%jJ%%%%%%%%%%%%%%%%%j%%%JJ%%%%j%%%J%%%%%j%%%%%%%J%Jj%j%%jJ%%%j%%J%%
5885@%%%%%%%%%%%%%%%%%%%%j%%%%%J%%%%%%%%%%%%%%%%%%%%%%%%%%%%j%%J%%%%%%j%%J%%%%%%
5809@JJ%%%%%j%%%%j%%%%%%J%%%%%Jj%%%%%%%%%%%j%%%%%%%%%%%%%%%Jj%%%Jj%%%%%%%%%%%%%%
5733@j%J%%%%%%J%%j%%J%j%%%%%%%%%J%j%%%%%%%%J%%%%j%%%%%%%j%%%J%%%%%%J%%j%%%j%%%%%
5656a%%%J%%%%%%%%%%%%%j%J%%%%%%%%%%%%%%%%%%%%%%%%%%Jj%%%%%%%%%%%%%%%%%%%j%%%J%j%
5580a%J%%%%%%%j%%%%%%%J%%%%%%%%%%%%J%j%%%%%%%%%j%%J%%%%%%%%j%J%%%%%%%%%%%%%%%%%J
5504A%j%%%%%%%%%%j%J%%%%j%%%Jj%%J%%%%%%%%%%%%%%%%%jJ%%%jJ%Jj%%%%%%%%%%jJ%%%%%%%%
5427@%%j%J%%%%%Jj%%%%%%%%%%%%j%%J%%%%%%%%%%%%%%%%%J%%%%%%%%%j%J%j%%%%%Jj%%%%%%%%
5351@%%J%%%j%j%J%j%%%%%%%%%J%Jj%j%J%%%%%%%J%j%%%%%%%%%J%%j%%%j%%%J%%%j%%%%%J%%%%
5275@%J%%%j%%%J%%j%%J%j%%%%%%%J%%j%J%%%%j%%%jJ%%J%j%%%%%%%%%%%%%%%%%%%%%%%jJ%%Jj
5198@%%%%%%%J%%j%%j%%J%J%j%%%%%%%%%%%%j%%J%%%%%%%%%%%%%%%%%%%%%%%%%%j%J%%%J%j%j%
5122a%%%%%%%%%%%J%%jJ%%%%%%%%%%%%%%%%%%%%%%%%%%%%%%J%%j%%%%%%J%%%%j%%%%jJ%%%%%%%
5046@%%%%%j%%%J%%j%J%%%%%%%%%%%%%%%%j%J%%J%%j%%J%%%j%%%%%%%%%%j%%%J%%%%%%%J%j%%%
4969@%j%J%%J%%%j%%%%%J%%j%%J%%j%%J%%%j%%%%%%%%%%%%%%%%%%J%%j%%%%%J%j%%%%%%jJ%%j%
4893a%%J%j%%%J%%%%%j%%%%%%%%%%J%%%%%J%j%j%%%%%%%%J%%%%%%%%%%%%%%%%%%%j%J%%%J%%j%
4817@%%%%%%%%%%%%%%%%%%%%%Jj%%%%j%%%J%%%%%%%jJ%%%%%J%j%%%%%%%%%J%j%%%%%Jj%%%%%%%
4740@%%%%%%%%%J%%j%%%%%%%%%%%%%%%%%%%%%J%%j%j%jJJ%J%%%%%%%%%%%%j%Jj%%j%%Jj%J%%%%
4664@%J%%j%%%%%%%%%%%J%j%Jj%%j%%%%%%J%j%%%%%%J%%%%%%%%%%%%j%%%J%%%%%%%%%%%%%%%%%
4587@%%%j%j%J%%J%jJ%%%%%%%%%%%Jj%%%%%%%%%%%%%%%%%%%%%%%%%%%%%%%%%j%J%%J%j%J%%%j%
4511@%%%%%%%%%%%%J%j%%%%%%j%%J%%%%%%%%%%%%%%%%%%Jj%%%%j%J%%%%%%%%%%%%%%%%%%%%j%%
4435a%%%jJ%%J%%%%%%%%%%%%%%%%%%j%%%%%%%%%%%%%%%%%%%J%%j%%%%J%j%%%J%%%%%%%%%%%%%%
4358@%%%%%%%%%%%%%%%%%%%%%%%%%%%%%%%j%%jJ%%Jj%%%J%%%%%%%j%%j%%%%%%J%%%J%%%%%%%%%
4282@%%%%%%%%%%%%%%%Jj%%%%%%%%%%%%%%%%%%%j%%%%%%%J%j%%%%%%%J%%%%%%%%%J%%j%%%J%%%
4206A%%%%j%%j%%%%%%%J%jJ%%%%%%%%%%J%j%%%%%%J%j%jJ%%%j%J%%%%%%%%%%j%J%J%%%%%%%j%%
4129@%%%%J%%%j%%%J%%%%%%%%j%%%%%%Jj%j%%%J%%%%%%%Jj%%%%%%%J%%%%%%%%%Jjj%%%%%jJ%%J
4053A%%%%j%%%%%%%%%J%j%%%%%%J%%%Jj%%%%%j%%J%%j%j%%%%%%J%%%%Jj%Jj%J%j%j%J%%%%%%%%
3977@%%%%%%%%%J%j%jJ%%%%%J%%j%%%%%%%%%%%%j%%J%%%%%%%%%%%%%Jj%%%%%%j%%%%%%J%%%%%%
3900@%%J%%j%%%%%Jj%%%%%jJ%%%%%%%%J%%%%jJ%%j%%%%%%J%%%%%%%%%%%%%%%%jJ%%%%%%%%%%%%
3824A%jJ%j%%%%J%J%j%%%%%%%Jj%%%%%%%J%%j%%%%J%j%J%%%%%J%j%%%%%%Jj%%%%%%j%%%%J%jJ%
3748B%%%j%%%J%%j%%%%%J%%j%%%%%%Jj%%J%%%%%%%j%%J%%%j%%%%%J%J%%%%%%jJ%%j%J%%%%%%%%
3671CJ%%j%%%%%%J%jJj%%%%%J%J%%%%j%%%%%J%J%%%%%%%%J%J%%%%%JJ%J%J%%J%%J%J%J%JJ%JJJ
3595B1JJKKLLKMLMNOPPQQRJ0J0J0RQNLjnpj0j2j3j2j2j0qqonmmllkkjjj%%j%%%%%J%%JKJKJKKJ
3529C3JKKJKKKLKKKJJJ%J%j%Jj%J%%j%%%JJJJJJKKKLKLMMMMNMNLLKJjklmmnnnnmmmllkjkjjjjj
3454E4j%%%JJJ%j%%jj%kkkkklkkkkkkjkj%jjjkjj%j%%%%J%JJJJKKKKKLLLMNMOOQQRRRRROMJlnr
3378A20j1j2j2j2j0j0ppnnmmllkkjjj%j%j%%%%%j%%%%j%%j%%jj%%%%j%%%%%%%%%%%j%%%%%%%%j
3310b%J%jJ%%%%%%%%%%%%%%%%%%%%%%J%%%j%%%%%%%%%%Jj%%%%%%%%%%%%%%%%%J%jJ%%%j%%%%%%
3234a%%%%J%%%%j%%%%Jj%%jJ%%%%%J%%%%%%j%%J%%Jj%%%%%%%%%j%%%%J%jJ%%%%%%%%%%%%J%j%%
3157@%%%Jj%%%%%j%J%j%%J%jJ%%%%%%J%%j%%%%%jJ%%%%%%J%%j%%%%jJ%J%%j%%%%%%%%j%%Jj%J%
3081@%%%%%%%Jj%%%%j%%%%J%%jJ%%%%%%J%%%j%j%J%%%%%%%%%%%j%%%J%%%%%%%%%%%%%%j%%%J%%
3005@%J%j%%%%%%%%%%%%J%j%%%%J%j%j%%%%%%%%JjJ%%%j%J%j%%J%%%%%%%%%%%J%%%%%%%j%%%%j
2928a%J%%%J%%%Jj%%%%%%%%%%%%%%%%%%%%J%j%j%%%%J%%j%%%%j%J%%%J%j%%%%%%%%%%%%%%%%Jj
2852@%%%%%%%J%%%j%%%%%J%%%%j%jJ%%%%%%%J%j%J%%%%%%%%j%%%%%%%%%%%%%%%%J%%%%%%%%j%J
2776A%j%%J%%%%%%%%%%j%%%%%J%%%%%%%%j%%%%%%J%%%j%jJ%%%%%J%%jjJ%J%%%%J%%%j%j%J%%%%
2699A%j%%%%Jj%%J%%%%j%%%%%J%j%J%%j%%%%%%%J%%%%%%j%%%%%%%%%%%%%%%%j%%J%%%%%%J%j%%
2623@%J%j%%j%%%%%J%%%j%J%%%%%%%%%%%J%j%%%%%%%%%%%%%%%%%%%j%%J%%%%J%Jj%%%%j%%%%%%
2547@%%%%%%%%%%%Jj%%%J%%%%%%%%%%jJ%%%j%%%%%%%%%%%%%jJ%%%%%%%%%%%%J%%j%%%%%%%%Jj%
2470@Jj%J%%j%%%%%%%j%%J%%%%%%%%J%j%%J%%j%%%%%%%%%%%%%%%%%%%%j%J%%Jj%%%%%j%J%%%%%
2394@%%%%%%%%%%J%j%%J%%%%j%%%%%j%J%%%%%%%%%%J%j%%j%J%%jJ%%%%%%%%%%%%j%%%%%%%%J%J
2318A%%%%j%%%%%%%%%%%%%%%%%j%J%%%%%%%J%j%J%%j%J%%%%%j%%Jj%%%%%%%%%%%%%Jj%%%%j%J%
2241@%J%%j%%J%%%%j%%%%%%%%%%%%%%J%j%%j%%%J%%j%%%%j%J%%%%%%%J%%%%%%J%%%%%j%%%%j%%
2165a%%%%%%%%J%%%%%%%%%%%%%J%j%%%%%%%%%%%%%%%%%%j%%%J%%J%j%%%%%%%%%%%Jj%%%%%%%%%
2089@%J%%%%%%%j%%%%%%%%%%%%J%j%%%%j%J%%%%%%%%%%%%j%%%J%%j%%%%%%J%J%%j%%%%%%%j%%%
2012aJ%%%%%J%j%%%%%%%%%J%%j%%%%%%J%%j%%%j%%J%%Jj%%%%%%%j%%J%%%j%%J%%J%%%%%%j%%%%
1936@%%%j%%J%%%j%%%J%%%%%%J%%%j%%%%%%j%J%%%%%J%%j%J%j%%%%Jj%J%j%%%%%%%%Jj%%j%J%%
1860@%%J%j%j%%%%J%%%j%%%%J%%%%%j%%%%J%J%%%%j%%j%J%%%%%%%%%%%%%%%%%%%%%%%jj%%%JJ%
1783@%%%%%jJ%j%%%J%%%jJ%j%%%%%%%%%%%J%%J%%%j%%%%J%j%j%%J%%%%%%%%%j%%%%%%%%J%%j%%
1707aJ%%%Jj%%%%%%Jj%J%%%%%j%j%%%J%%%%%%%j%%%%%J%%%%%j%%%%%%%%%J%%%%%%%%%%%%j%J%%
1631@Jj%%%%%j%J%j%%%%%%%J%%%%%%%%%%%%%%%jJ%%%j%%J%%J%%j%%%%%%%%%jJ%%%%%%%%Jj%%%%
1554@%%%%J%%%j%%%%%%%J%%%%j%J%%%%%%%j%%%%j%J%J%j%%%%%%%%J%%%%j%%%%%%%%J%j%%%%%%%
1478@%j%J%%%%%Jj%%%%%%Jj%%%%%%%J%j%%%%%%%%j%%%%%%%J%%%%%%%%%%%j%%J%%%%%%jJ%%%%%%
1402@%%%%%%%%J%j%%%%%%%%%%%%%%%%%jJ%Jj%%%%%%%%j%%j%J%J%%%%%%%%%%%%%%%J%j%%%%%%%%
1325@%j%%%%%%J%%%%%%%%%%%%%%%%%J%%j%jJ%j%%%%J%%%%%%%%%%%%%%%J%%%j%%%j%%%J%%J%jJ%
1249Aj%%%%j%J%%%%%%%%%%j%%%J%%%%%j%J%%%%jJ%%%%%%%%J%%j%%%%%%j%J%%%%%%%%%%%%j%%Jj
1173aJ%%%%%%%j%%J%%%J%%%%%%%%j%%%%%J%jJ%j%%jJ%%%%%%Jj%%%%%%%%j%%JJ%%%%%%%jJj%%%%
1096@%%%%%%%J%j%%%%%Jj%%%%%%%%J%%%j%%%%%j%J%%%%%j%%J%%%%%%%%%jJ%%%%%j%J%%%%%%%%%
1020@%%%J%%j%%%J%J%j%%j%%J%%%%%%%%j%%Jj%J%%%%j%%%%%%%%j%J%%%%%%%%%%%%%%%%%%%%%%%
944@%%%%%j%%J%%%%%%%%J%%j%%j%%%J%%%%%%%%%%%%%%%%%J%%j%%JJ%j%%%%%%%%%%J%%%j%%%J%j
866A%J%%J%%%%%j%%J%J%JJJJJKKKKKLLLMMK%kmnmmllkkkjjj%%jj%%%j%%%%J%%%%%%%%%%%%%%J%
789C%%%j%%j%%%%%j%%%%%%%%%%J%%%j%%%%%%%%%%j%J%%%J%%%j%%%%%%%%J%j%%%%%%J%%j%J%J%%
711Bj%%%%j%%%%J%j%%%%%%%%%%%%%%%%J%%%%%%J%j%J%%%J%%J%JJJJ%JKJJJ%%jjjjkjj%jj%j%j%
634Bj%%%%%%%%%%%%%%%%%%%jJ%%jJ%j%%%%%%J%%jJ%%j%%J%%%%%j%%%%J%%%j%%%%%%%%j%%%Jj%%
557a%%%%%%%%J%%%%%%%%%%%%%%%%%%%%%%%%%%j%%%J%%%%%%%%%%J%j%%%%%%J%%%j%%%%%%%j%%%%
479a%J%%%%%Jj%%j%%%%%%%%%%%%J%%%%%%%%%%jJ%%%%%%%%%%%%J%%%j%%%j%%%J%%%%%%%%J%%j%%
402@%%%%%%%%%%j%%%%J%%j%J%%%%%%%%%%%%%%%%%%j%%%%%%%%%%%J%j%%%%%%%%%%J%%%jJ%J%%J%
325B%%%j%j%%%%%%%%%%%%%%%%j%%%%%J%%j%J%%%%%j%J%%%j%%%J%%%%%%j%%%%%%%%%%%%%%%%%%%
247a%%%%%%j%%%J%%Jj%%%%%%%%%%%%j%J%%%j%%%%%%J%%%%%%%j%J%%%%%%%%%%%%%%%%%%j%%%J%%
170a%%%%%%%%%%%J%j%%%%J%%%j%J%j%%%j%%%%%%%J%%%J%%%j%%%%%%%%%%%%%J%%%%J%%%%%%%%j%
93@J%%%%%%%%J%%%J%J%%%%%J%JJ%J%%%JJJKJJJKKKLLMMMMNOPQQRRPMJllkj%LNPRJ2J5J7K1K4K9
20B41L3M0M7N5O4P3Q2R4J06J21J37J57J80K07K37K64K75K46J57J8j42k67l25l22k90k47k03j64
-8H74j31j04q3o9n8m9m3l8l2k8k3k0j6j4j2roonlkjJJKKK%npj1j1j0rppommmklkjkkjkjj%jjkj
-64B3%j%jj%j%j%%jj%j%%%%%j%j%%%j%%%j%%%%Jj%j%jJ%j%%%jJ%%j%j%%%%%%j%%%%%%%%%%%%%%
-140F%%%%%%%%J%j%%%%%%j%%%jJ%%%j%%%%%J%%j%%%%J%%%%j%j%%J%%%j%%%J%%j%%%%%%%%%J%%%
-217Dj%%%%%%%j%%%J%%%%%%%%%%%%%%%j%%%%%%%j%%%%J%j%%J%%j%%J%%%%%%j%Jj%%%J%%%%j%%%
-293A%%%J%%%j%%%J%j%%%J%%%%%%%%%j%%j%%%%%J%%%%%%%%%%%%%%j%%%%J%%j%%%%J%%%%%%%j%J
-369A%%%j%%%J%%%%%%%%%%%%%%%%%%%%%j%%%J%%%%%j%%%%J%%%%%%jJj%%%j%%J%%%%%J%%%%%%j%
-446@%Jj%%%J%%j%%J%%%%%%%%%%j%%J%%%%j%jJ%Jj%%%%j%%%%%%%%%%%%J%%%%%%J%%%%%%j%%%%%
-522@%%%%%%%%%%%%%%%%%%%%%%%%%%%%%%%%%%%%%%%%j%%Jj%%%%J%%%%%%%%%%%%%%%%%%%%%%%%%
-599@%%%%%%j%%%%%%%%J%%%%%%%%%%%%%%%%%Jj%%%%%%%%%%%J%%%%%%JJJJJ%JJJJJJJ%%%jjkjj%
-675Gjjk%jj%%%J%j%%j%%J%J%%%j%%%Jjj%%%%%j%%%%J%%%%%%%j%J%%%%%%%%%%%%%%jJj%J%%%%%
-751@%Jj%%Jj%%%%%%%j%J%%%%j%%%Jj%J%%j%%Jj%J%%%%%%%%%%Jj%%%%j%J%%%%%%%%%%%%jJ%%%j
-828a%J%%%%%%%%%%%%%j%%JjJ%%%%%%%%%%%%%%%%%%%%%%%%%%%%%%%%j%%%%%%%%%%%%%%%Jj%J%%
-904@%j%%j%J%%%%Jj%%J%J%j%%%%%%%%%%%j%%J%%%%%%%%%%j%J%%%%%%%%j%J%%%%j%J%%%%%%%%%
-980@%%%%%%%%%%%%%%%%%J%%jJ%%j%%%%%%%%J%%%j%%%J%%%j%%%%%%%%%jJ%%Jj%%%%%%%%J%%j%%
-1057@j%%J%%%%%%%j%%%J%%%%%%%%%%%jJj%%Jj%%%%%J%%%%%%%%%%%%%%%%%%%%%%%%%%%%%%%%%%
-1132@%%%j%%%J%%%j%J%%J%%j%%%%%%%%%%%%%%%jJ%%%%%%%%%%j%%%J%%%%%j%%J%%%%%%%%%%%%%
-1207@%%%%%%J%%jJ%j%%%%%%J%%%%%%%%%j%%%%%%%%%%%%%%%%%%%%%%%%%%%%%%%%%%%%%%%%%%%%
-1283@%%%j%%J%%%%%%%%j%%J%Jj%%%%%%%%%%%%%%%%%%%%%%%%%%%%%%%%%%%%%%%%%%%%%%j%%%%%
-1358a%jJ%%Jj%%%%Jj%j%%J%%%%%%%%%%J%%%%%%%%%%%%%%%%%%jJ%%%%%%%%%%%%%%%%%%%j%%%%%
-1433aJ%j%%J%j%%J%%%%%%%%%%%%%%J%%j%%%%%%%%J%%j%%%%%%%%%%%%%%%%%%j%J%%%J%%%j%%J%
-1508Aj%%%%%%%%%%%%%%%j%%J%%%%%%J%%%j%%%%%%%%%%%%%%%%%%%%%%%j%%J%%%%%%%%%%%%%%%%
-1584@%%%%%%%j%%%JJ%%%j%%j%J%%%Jj%%%%%%%%%j%%%%%J%%%%%%%jJ%%%%%%%%%%%%%%j%J%%%%%
-1659@%J%%%%%%%j%%%%%%%%%Jj%%%jJ%%%%%%%%%%%%%%%%%%%%%%%%%%%%%%j%%%J%%%%jJJ%%jJ%j
-1734@%J%%j%%%%%%jJ%j%%%%%J%%%j%%J%%J%jJj%%Jj%%%%%%%J%%j%%%%%%%%%%%%%%%%%%%%%%%%
-1810@%j%%%%%J%J%j%%%%%%%%%%J%j%%Jj%J%%%j%%%%jJ%%%Jj%%%%%%%j%%%%%%%%%%%%%%%J%%%%
-1885@%%%jJ%%%%%%%%%%%%%%%%%%%%%%%%%%%%%%%%%%%%%%j%%%%J%%%%J%j%%%%j%J%%%%%%%%%%%
-1960@%%%%%%%%%%%%%%%%j%J%%%%%%jJ%j%%%%%%J%j%%%%%J%%%%%%%Jj%%jJ%%%%%%%Jj%%%%%%%%
-2036@%%%%%%%%%%%%%%%%%%%%%%%J%j%%%%%%%%%%J%%jJ%j%%%%%%%%%%j%J%%J%%%%%%j%%%%%%%%
-2111@%%%%%%%%%%J%j%%%%%J%%j%%%%%%%%j%%J%%j%%J%%%%%%%%%%%%%Jjj%%%%%JJ%%%j%%%%%%%
-2186@%%%%J%%%%%j%%%%%%%%%%%%J%j%%%%J%%j%j%%%J%%%%%j%%J%%j%%J%%%%%%J%%j%%%%%%%j%
-2262aJ%%%%%%%%%%%%%%j%%%%%%%%%%%%J%%%%%%%%%%%%J%%%%%%%%%j%J%%%%%%j%%J%%%j%%%%%%
-2337@%%%%%%%%%%%%%j%%J%%%%%%%%j%%%%%%%%JjJ%%%%%%%Jj%%%%%%%%%%%%%%%%%%%%%%%%%%%%
-2412@%%%%%%%%j%J%%%%%%%%%%%%%%%%%%%%%%%%J%%j%%%Jj%J%j%%%%%%%%j%%%%%%%JJ%%%%%%jJ
-2488A%%j%%%%%%%%%%%%%%%j%%%J%%%%%%j%%%%%%%J%%%j%J%%%%%%%%%%%Jj%%%%%%%%%%%%%%Jj%
-2563@%%%%%J%%jjj%%%J%%%J%%j%%%%%%%%%J%%%%%j%J%%J%j%%%%%%%%%%%%%%%%%%%%%%%%%%%%%
-2638@%%%%%%J%j%%%%%%%%%%%%%J%%j%%%%%%%%%%%%%J%%%%%%%j%%%%j%J%%%%%%%J%%j%%%%%%%%
-2714@%%%%%%%%%%%j%%%J%%%J%%%%j%%%%%%%%%%%%%%%%%J%j%%%%%%%%j%%%J%%%%%%j%%%%%%%%%
-2789a%%J%j%%%%%J%%%%%%%%%%%%%%%j%%J%%j%J%%%%J%j%%%%J%%j%%%%%J%%%%%%%j%%%%%%%%%%
-2864@%%%%%%%%%%j%J%jJ%%%%%%%%%%%%%%%jJ%%%j%%%J%%%j%J%%j%%%JjJ%%%%%%%%%%%J%%j%%%
-2940@%%%%%%%%%%%%%%j%J%J%%j%%j%%J%J%%j%%%%%%J%j%%%%J%%%%%%%j%%%%%%J%%%j%jJ%%J%j
-3015@%%%%%%%%%%%%%%%%%%%%j%%%%J%%%%%%j%J%%%%%%%%%%%Jj%%jJ%%%%%%%%%%%%%%%%%%%j%%
-3090a%J%%%j%%%%%%%%%%J%%%J%j%%%%%j%%%%J%j%%J%%%%%%Jj%%%%%%%%%%%%%%%%%%J%%j%J%%%
-3166AjJ%%%%%%%j%%%%j%%J%%%%%%%%%%%%%jJ%J%%%%j%%%%%%%%Jj%%%%%%%J%%j%%%%%%%%%J%j%
-3241@%J%j%%%%%%%%%%%%%%%%%%%%%%%%%%%%%%%%%J%%%%J%%%%j%%%j%%%%%%%%%%%%j%J%j%%%%%
-3316a%%%%%%J%%%%%%%%%%%%%%%%%%J%%%%%%%%%j%%%%%j%%J%%%%%%%%%%%%j%%J%%%%%%%%j%J%j
-3392aJ%%%%%%%%%J%%%j%%%j%Jj%%J%jJ%%%j%%%J%%%%%%%%%%%%%%%%%%%%%%%%%%%%%%%%%J%j%%
-3467@%%%%J%%%%j%J%%%%%%%%%%%%%j%%%%%%j%%%%J%%j%J%%%%%%%%%%%%%%%%j%J%%%%%%%%%%%%
-3542@%%%%%%%%%%%%%%%%j%J%%%%%%%%%%%%%%%%%%%%j%J%%%j%%%%J%%%%%%%%%%%j%J%%%%%%%%%
-3617@j%%jJ%J%%%J%j%%%%%%J%%%j%%%%%%%%%%%%%%%%%%%%%%%%%%%%jJ%J%%%j%%%%%%%%%%%%%%
-3693@%%J%%%j%%%%%%%j%%%J%%j%%J%%%%%%%%%%%%%jJ%%%%%%%%%%%%Jj%J%j%%%J%%jJ%%%%%j%%
-3768@%%%%%%%jJ%%j%%J%%%%%%%%%%j%%%J%%%%%%%%%J%%%j%%%%%%%%%%%%%%%%%%j%J%%%J%%%j%
-3843@%%%%%%%%J%%j%%%%%%jJ%%%%j%%%J%%%%%%%j%%%%%J%%%%%%%%%%%%%%%%%%%%%j%%J%%%%%%
-3919@%%%%%%%%%%%%%%%%%%%%%%%%%%%j%J%%%%%%%%%%%%jJ%%%%jJ%%%%%jJ%%%%%J%%j%%%%%%J%
-3994Aj%%%%%%%%%%%%%%%%%%%%%j%J%j%%J%%%%%%J%%%%%%%j%j%%%%J%j%%%%J%%%%%%%%%j%%%J%
-4069@%%%%%%J%%%%%%j%%%%%%%%%%J%j%%j%%%%J%%%%%j%J%%%%%%%%%%%j%J%%%%j%J%%%%%j%J%J
-4145Aj%j%%JjJ%%%%%%%%%%%%%%%Jj%J%%%j%%%%%%%%%j%%%%J%%%%j%%%%%J%%%%%%%%%%%%%%%jJ
-4220@%%%%%%%%%%%%%J%j%%%Jj%%%%%%J%%%j%%%%%%J%j%J%%%j%%%%%%%%%%%%%%%%%J%%j%%%%%%
-4295@%%%%%%%%%j%jJ%%%J%j%%%%%%%%%%%J%%%%%%%%%%%%%%%Jj%%%%%%%%%%%%%Jj%%%%%%%%%j%
-4371a%J%%%%%J%%%j%%%j%%J%%J%%%%j%%%%%%%%%%%%%jJ%%%%%%%%%%%%%%%%%%%Jj%%%%%%%%%%%
-4446@%%%%Jj%%jJ%%%%%%%j%%%%%%%%%%%J%%%%%%%%%%J%%%j%%%%%%%j%%%%J%%j%J%%J%%j%%%%%
-4521@%%%%%%%%j%%%%%%J%j%%%%%%%J%%%j%%%%J%%j%%J%%%%%%%%%%%%%%%%%%%%%%%%%%%%%%%%%
-4597@%%%%%%j%%J%j%%%J%%%jJ%%%%%J%j%%%%%jJ%%%%%%%%%j%%%J%%j%%%%%%%%%%%%%J%%%J%j%
-4672@%%%%%%%jJ%jJ%%%%%%%%%J%%%%j%%%j%%J%%%%%%%%%%%%%%%%%%j%%%J%j%%Jj%%%%%%%J%J%
-4747Aj%%%%Jj%%%%%%%%J%j%%%%%%j%J%J%%%%%%%%%j%%%%%%%%j%%J%J%%j%jJ%Jj%%%%%%j%%%J%
-4823@%J%%%%j%%%%J%%j%%%jJ%%j%%%%%%J%%j%J%%%%%J%jJ%%%j%%%%%%%%%%%%%%%%%%j%%j%J%%
-4898a%J%%%%%J%j%%%%%%%j%%J%%%%%j%Jj%%%%J%J%j%%%%%%%%j%%JJ%%%j%%%%%%%%%%%%%%%%%%
-4973@%%J%%%j%%%%%%%%j%%%%%%%%J%%%%%j%J%%%%%%%%%%%%j%Jj%%%%J%%J%%%j%%j%%%%%%J%%%
-5049@%%%%j%%J%%%J%j%%J%j%%%%%jJ%%%%%%%%%%%J%%j%%%%%%%j%J%%j%%%%%%%J%%%%%%%%%%%%
-5124@jJ%J%%%j%%%%%%%%%%%%%%Jj%%%%%%%%%%%%%%jJ%%%%%%%j%J%%%%%%%%%%Jj%%%%%%%%%%%%
-5199@%%%%Jj%%%J%j%j%%%Jj%%J%%%%%%%%J%%%%j%%%%J%%j%%%%%%%%%%j%J%J%%j%%%%%%%%%%j%
-5275a%J%%%%%%%%%j%%%%J%jJ%%%%%%%J%j%%%%%%%%%%%%%%%j%%%J%%%j%%%%%J%%%%%%Jj%%%%%%
-5350@%%J%%%%%%j%%jJJj%%%%Jjj%%%%%%%J%%%%%%%%%%%%%%%%%j%%%J%%%%%J%%%%%%j%%%j%J%%
-5425@%%%%%%%%J%j%%%%%%%%%%%jJ%%%%%%%%J%%%%%j%%%%%%%%%%%%%%%%j%J%%%%%%%j%%%%%%J%
-5501@j%%%J%j%J%%%Jj%%%%%%%%%J%%%%%%j%%%%%j%%%%J%%%%%%J%%j%J%%%j%JJj%%j%jJ%%%%%%
-5576@%%j%J%%%%%%%%%%%%%%%%j%%%%%%%%J%j%%%%%%%%%J%%%%J%%%%j%%%%%%%%j%J%%%%%%%Jj%
-5651@Jj%%%%%%%%J%%%%%j%%%J%j%J%%%%%j%%%%%J%%%j%%%%%Jj%%%%%%j%J%%%%%%%%%%%%J%j%%
-5726@%%%%J%%j%J%j%%j%%%%%%%%%J%%%j%%J%%Jj%%%%%j%%%%%J%%%%%%jJ%%j%j%J%%%%%%%J%%%
-5802@%%%%%%%%%%%%%%%%j%%%%J%%j%%%%J%%%%%%j%J%%j%J%%%%j%%%%%%%%%%%%J%%%%%%%%%%%J
-5877A%jj%%%%j%%%%J%%J%%%%%%%%%%%%%jJ%%%%%%J%j%j%%%J%%%%%%%%%%%%%j%%%%%%%JJ%%j%%
-5952@%%%%%%%j%%%J%%%%%%J%%%%%%%%%j%%%Jj%j%%%%J%%%%%%%J%%%j%j%J%%%%%%%J%j%%%jJ%%
-6028@j%%%J%jJj%J%%%%J%j%%%jJj%%%%J%%%%%J%j%%%%%%%%%%%%%%%%J%%%j%%%%%%%%j%J%%%%%
-6103@%%%%%%%%%%%j%%%%%%%%J%%%J%%j%%%j%%%%%J%%%%%J%j%J%j%%%%%%%Jj%%%J%%j%%j%%J%J
-6178A%%j%%%%%%J%j%%%%%%jjJ%%J%%%%%J%%%j%%%%%Jj%%%%J%%%j%%%%J%j%%%%%%%%J%%j%%%j%
-6254a%%J%%%%J%%%%j%%j%J%%%%J%%%%%j%%%%%%%%%%%%%%%%%%%%%%%%%%%%%%%%%%%%%%J%j%%J%
-6329A%%%%%j%J%%j%%%%%%%%%j%%%%%%J%%j%J%%%%%%%%%j%J%%%%%%%%%%%%%%%%%%%%%%Jj%%%%%
-6404@J%%%%%j%%%%%%j%J%%%%%%%%%%j%%%%%%J%%%%%%j%%%%%%J%Jj%%%%%%%%%%%%j%%%J%%%j%%
-6480a%%%%J%J%j%%%%%%%%%%%%%%%%%%%%%%%%%%%%%%%%%J%j%%%%j%J%%%%jJ%%%%%%%jJ%%%%%%%
-6555@%%%%%%%%%J%j%%%%%%%%jJ%%%%%%%Jj%%%%%%%%%%%J%%%jJ%%j%%%%%%%%%%%%%J%%%j%jJ%%
-6630@%%%%%%%%%%j%J%%%%%%%%%%%%%%%%J%%%j%%%%%%%%Jj%%%%%jJ%%%%%%j%%%J%%%%%%
-6700@ $$ checkpoint
##END=
##TITLE=Peak list
##JCAMP-DX=5.01
##ORIGIN=UNKNOWN
##OWNER=UNKNOWN
##DATA TYPE=NMR PEAK TABLE
##DATA CLASS=PEAK TABLE
##BLOCK_ID=3
##CROSS REFERENCE=NMR SPECTRUM:BLOCK_ID=2
##DATE=22/03/03
##TIME=15:05:00
##TEMPERATURE=25
##LONG DATE=2022/03/03 15:05:00 
##.OBSERVE FREQUENCY=500
##.OBSERVE NUCLEUS=1H
##.SOLVENT NAME=H2O
##NPOINTS=12
##XUNITS=PPM
##YUNITS=ARBITRARY UNITS
##PEAK TABLE=(XY..XY)
(3.24, 19984534488.0)
(3.25, 43033020000.0)
(3.26, 27364697418.0)
(3.24, 19984534488.0)
(3.25, 43033020000.0)
(3.26, 27364697418.0)
(3.4, 25518580860.0)
(3.42, 38824390644.0)
(3.43, 16554802793.999998)
(3.4, 25518580860.0)
(3.42, 38824390644.0)
(3.43, 16554802793.999998)
##END=
##TITLE=Assignments
##JCAMP-DX=5.01
##ORIGIN=UNKNOWN
##OWNER=UNKNOWN
##DATA TYPE=NMR PEAK ASSIGNMENTS
##DATA CLASS=PEAK ASSIGNMENTS
##BLOCK_ID=4
##CROSS REFERENCE=STRUCTURE:BLOCK_ID=1
##DATE=22/03/03
##TIME=15:05:00
##SAMPLE DESCRIPTION=Taurine
##TEMPERATURE=25
##LONG DATE=2022/03/03 15:05:00 
##SOURCE REFERENCE=HMDB0000251
##.OBSERVE FREQUENCY=500
##.OBSERVE NUCLEUS=1H
##.SOLVENT NAME=H2O
##NPOINTS=12
##XUNITS=PPM
##PEAK ASSIGNMENTS=(XMA)
(3.25, <t>, <12>)
(3.25, <t>, <12>)
(3.25, <t>, <12>)
(3.25, <t>, <13>)
(3.25, <t>, <13>)
(3.25, <t>, <13>)
(3.42, <t>, <10>)
(3.42, <t>, <10>)
(3.42, <t>, <10>)
(3.42, <t>, <11>)
(3.42, <t>, <11>)
(3.42, <t>, <11>)
##END=
##END=
