##TITLE=HMDB0000142, Experimental spectrum with assignments
##JCAMP-DX=4.24
##ORIGIN=UNKNOWN
##OWNER=UNKNOWN
##DATA TYPE=LINK
##DATE=22/03/03
##TIME=15:04:23
##LONG DATE=2022/03/03 15:04:23 
##TITLE=Formic acid
##JCAMP-CS=3.7
##ORIGIN=UNKNOWN
##OWNER=UNKNOWN
##DATE=22/03/03
##TIME=15:04:23
##BLOCK_ID=1
##CROSS REFERENCE=NMR PEAK ASSIGNMENTS:BLOCK_ID=4
##LONG DATE=2022/03/03 15:04:23 
##MOLFORM=C H2 O2
##ATOMLIST=
1 O 0
2 C 0
3 O 0
4 H 0
5 H 0
##BONDLIST=
1 2 D
2 3 S
2 4 S
3 5 S
##$MOLFILE=
     RDKit          3D

  5  4  0  0  0  0  0  0  0  0999 V2000
   -0.7384    1.1381    0.1781 O   0  0  0  0  0  0  0  0  0  0  0  0
   -0.4521   -0.0867    0.1085 C   0  0  0  0  0  0  0  0  0  0  0  0
    0.8890   -0.4513   -0.0084 O   0  0  0  0  0  0  0  0  0  0  0  0
   -1.2552   -0.8084    0.1420 H   0  0  0  0  0  0  0  0  0  0  0  0
    1.5567    0.2084   -0.4202 H   0  0  0  0  0  0  0  0  0  0  0  0
  1  2  2  0
  2  3  1  0
  2  4  1  0
  3  5  1  0
M  END

##END=
##TITLE=Spectrum
##JCAMP-DX=5.01
##ORIGIN=UNKNOWN
##OWNER=UNKNOWN
##DATA TYPE=NMR SPECTRUM
##BLOCK_ID=2
##CROSS REFERENCE=NMR PEAK TABLE:BLOCK_ID=3
##DATE=22/03/03
##TIME=15:04:23
##TEMPERATURE=25
##LONG DATE=2022/03/03 15:04:23 
##.OBSERVE FREQUENCY=500
##.OBSERVE NUCLEUS=1H
##.SOLVENT NAME=H2O
##.SHIFT REFERENCE=INTERNAL,DSS,58957.00,0
##XUNITS=PPM
##FIRSTX=10.7937
##LASTX=-1.204284
##MINX=-1.204284
##MAXX=10.7937
##XFACTOR=0.00018000000000029104
##NPOINTS=65536
##YUNITS=ARBITRARY UNITS
##FIRSTY=-18086310.0
##LASTY=-16992670.0
##MINY=-281780000.0
##MAXY=48591580000.0
##YFACTOR=1482942.5946836756
##XYDATA=(X++(Y..Y)), XYDATA $$ DIF
59965a2KKjJLLJ%KK%kkkJ%%j%%jjkjJ%%J%JJ%MLklj%KL%lkJKJKK%kj%kkKJk%%%kljJLMKjkj%%%
59891aJJ%%JjJJkjJJJJJJjj%%j%jjjk%JKJjkj%%JML%JJjjjjjJJjJJ%k%KKKjjkljJKjmj%%%JJj%
59815@LJ%kk%J%%%%%%J%jkk%JJ%JJJ%j%%jkjJJjjjJ%k%KjkLKjjK%klkl%JJKJjJKK%jk%J%j%%JK
59740b%%%jkJML%lk%J%jjjkkjKL%kKMJjk%jjJKJ%k%JJkljJ%%KMKjk%%jk%%J%%j%K%kjJJJJj%%J
59665@%jjjJJJJkjKMJjJJjjjlkJKK%jjjjJKjlkk%KJKLJkk%jJK%k%%%j%JKjjjJ%%jjJKK%ljKJ%j
59590@kk%%KJ%%%JJKJ%J%kJLJ%%jjklkjKKJLL%%%%%jjJKk%J%jkk%K%kj%K%j%%jj%%%jk%KJjk%K
59514A%j%JLL%k%%%%%jkjJ%J%J%Jjjj%k%J%JLK%jkkkjKKkkj%JJj%%jKJ%JLJ%JkllJL%lmkJKJJ%
59439ajj%%%J%J%kjJJJKJjjJL%j%jjjJ%JKKJ%%lkkJK%mkJKKK%%%JKJ%%jj%jJjlkJJ%%J%JJ%kjK
59364DKJJJkmkjj%j%J%%%%JJ%jK%jjJ%jJJkk%J%j%JJKJJkjjkk%%KL%k%j%J%jj%%J%%JJLJjj%%J
59289CK%kkk%JLK%%J%k%j%%%l%MKllj%%j%%%k%%jjk%KMKj%%j%%%KjjJJkl%KKjl%%%JjjJKJJJKJ
59213C%%%%J%%%j%%lmjj%%JKJJjkkJJjj%JK%%%jjj%KNK%%J%k%JjmkJLJ%%KKK%jj%jmk%j%JjjJj
59138dk%KJkj%JK%%J%JJ%%j%J%kjJ%%j%%jjJKJj%%%KMKkllj%J%JKK%%j%kljl%KJJJ%jj%KJ%%KK
59063C%jkj%jl%KJ%j%LL%%J%klkjk%KJKJKJJLK%%lkkkj%%KLKkmjJJ%%LK%mkKJkk%JJ%%jjJ%j%M
58988CKj%JK%lkjkm%KKjjKJ%%jjjJKJ%%klj%jjjJKKLJj%%%jj%jl%JjkjKMN%kjKMJ%JJjlkjk%%j
58912bKJjjk%%KjjjJj%j%%KJMLk%kl%JkJJj%jj%%%JJJjkj%j%K%%KLJjj%J%jJjkKKkj%%LK%%%JK
58837G%JJ%JJJ%llkkjjj%K%%j%%K%j%KjjJ%jJ%kjjk%KJ%j%jjJjJJJk%JjmkjJLLKKJjjJ%K%kk%J
58762@L%llk%jj%KK%JLKkjJJ%%JJJ%jkkk%JjJL%JKjmkJLJlkJJjkkKK%%KK%jjjjJLL%kJJkmkj%%
58687cJJJJ%j%jKMKjjjljJJJ%%%j%%j%%jj%%%LKJKJ%kllkkJKjkJ%%%Jkj%KjjJJjk%%jjJjJ%j%L
58611eLJJkjj%LKKKjj%jjjJJK%k%%%jkkJJJJkkJJJjk%Jj%LMJjjj%%k%KKK%klkJKJj%M%mlJ%j%%
58536a%KJjkkjKLJJ%lkJjk%KJ%j%%J%%%KL%mk%j%%jK%JKKJ%%jlll%J%%jjMNMJjljjkkJKK%%KJ%
58461EJ%k%LK%jkkkj%%%jkJJjlKMJlj%jjjLMK%jjjjjjjJjj%%%%JJ%JJ%KL%kjklj%JKKKjjJ%%%%
58385CjjkjJKK%lj%%%%jj%JK%j%KJklJKJ%j%KKjlk%KJJjj%J%k%JK%kjjjJK%%J%jjj%JJjj%%%ll
58310h%LL%%JjkjkjKLJKKJKjj%JJL%kkk%KJKJ%J%lljK%kljKMKknkkkjKMKjj%kj%%JK%kjjKM%kj
58235cjljjJKKJJKJ%j%%j%jJJjjKM%lljjJMJ%Kkk%JJ%kj%%JJ%%KKKkmklkj%JKLJ%%K%jj%JKKjk
58160Bj%J%jj%%JK%j%J%kkjJL%kkj%%JKK%k%KKjkjk%%jLO%mmjJJj%jm%JKJKKjJKK%jmmlJKJJKK
58084BJj%Jkl%LJJkmm%JJKKj%kjJJJ%%%JjkjjK%%JLJ%kjKK%%jJJjj%kk%kkJMKj%JjjJJJJj%Jjk
58009aJ%jjJKKJjml%LJJjkJKJJ%JJllJKK%kj%kjKJjJ%kjJKj%%KKJk%%jk%JJ%%%jjj%%jj%JJJJ%
57934A%%jkk%KLJlkLKKJ%ljKKJ%%%J%%lm%KJ%%kkJKJ%%kjJKjjK%J%KKjkkkjMK%jj%J%j%jjj%KJ
57859DKJjl%Kjj%jkk%J%jjKKJ%jJJJ%JjmkJK%j%J%KKK%jjj%%Jjk%jkJOLkkjjj%j%J%jjj%JJ%mk
57783eKKJJjkj%J%kjJ%k%%%%KjJLK%JJj%%J%ljJ%jJK%j%KKkl%j%J%klj%MMjl%jk%JKJk%K%JK%j
57708A%jjK%KKkl%jjjl%K%JJ%jljKLK%lljj%Jj%J%jjkJKKKjl%ML%jJKjlkllJJKJjkjj%JJjKK%j
57633gJJKKJKJjlm%KJ%%%%jj%klk%LLJLJkkljKj%J%%KL%jjjj%KKKJjlljKLJ%%jkJML%jkj%Jkl%
57558cKJJ%JJ%kj%KL%%J%jkJ%kmjkJL%JKJkkkKKJjljKLjj%%j%%%JJ%JLJK%l%KjljKJjl%j%%jkJ
57482bKJJ%kkkjJJjJKjk%K%j%kjKLJj%JjkJKK%kj%%kj%J%%K%kj%JJJJ%%K%JJjkk%%JLK%kkjLJj
57407C%jj%%JKkkJJKJjllJ%k%%jKJ%KKKJjJ%k%KJkl%JjjJLLjkj%jjjj%%Jjmk%%JKLK%l%Kkk%Jl
57332ekJLKJ%JJ%JK%lk%J%jJJj%LJklj%%JLKjkjKKjljjkjjJ%k%KKKJ%%jjjJ%j%LJ%%%j%jk%KL%
57256Cj%%kkJK%k%%Jj%KKJjkk%%JJK%llk%J%JLK%%%jk%%K%ljLKj%%JjjJJjkjj%JJ%%JLkmjK%jK
57181aK%%%JJK%%jj%j%%%jJK%J%jkk%JJJjkjKKJ%j%J%JKJkjjJK%ml%J%jjJJk%jk%Jjj%JKjj%J%
57106cJkjJK%k%%kjkkJKLMJ%%jj%k%JJ%%l%%KLJjjkjJj%%%JLLJJjJJJklllKKJj%k%MJkjJ%kkj%
57031d%LKK%klJJJJ%%%Jkj%JJ%kJ%lkJJKKJJKJjkmlkj%j%JJ%k%Jk%KL%jkjJ%LL%kj%LNKJKjllk
56955AJJ%jj%J%KL%JLJkmjj%kjJLJ%kjKKjkJJjjJJ%kkj%JJKjlkKML%JjkjJ%JJjmkKJkljJLKk%%
56880B%kjJJ%%%jj%%jjJJ%J%kk%KJjj%%j%KKK%%jjkljJ%JLjkKK%kJKjkkl%KJjj%j%%jjJJ%%JJ%
56805e%J%%Jkk%jj%JJj%J%jKJJJkjJJ%jJK%JJ%kJjjj%JJJKkkj%JK%%jj%KJJjk%KJ%K%kjJ%JJ%j
56730Bjjkj%J%%%JKKKJ%%lkJJ%%%%%jjJKJ%%kjjK%%jjkjJ%J%%%JK%%j%J%%JJ%jlmm%KK%JJJJJj
56654A%jKJjljjjJLLKjljJjk%LJJJK%kkk%J%j%%Jjj%j%KK%%K%J%j%jjJKK%%kkJKJkjJ%%j%jjk%
56579@KJkjJ%jjj%JJkkjJJk%KKLJkj%jJJ%%KJ%jJ%jklljj%KKJKKJ%%jk%Jjkj%j%LL%JJjkjllj%
56504gJKLLK%%jj%%%%jjj%%jk%%kKM%j%%%%Jjj%J%jll%JKJKJ%j%%%%j%%KJjk%J%JJ%jkj%jjj%L
56429dMLJk%%%%LJ%J%kKLKjmkKL%ljjkljKMJj%jj%kJK%jJ%JKK%jj%kkk%%jlkJKLJJ%mmlkjLJjJ
56353gK%KJJ%lkJ%JLKJ%kjj%%%%j%j%KMMLklkj%KJjj%jl%J%jJJjk%JJJKj%klmjJLNKjk%JJKJJ%
56278EkljKLK%lj%jjK%JL%jkk%JJJJjkJJJ%kljJ%jjJ%%kl%%jKjlj%JKKKJkJKJ%ll%%j%%JJ%JJ%
56203cjKK%kjjklj%%KK%jj%%KJj%JKKj%%%jk%KKKK%%KK%%jjjjkJLJkkkjLM%%J%mkK%JMjll%JJ%
56127C%J%j%J%kJLKjk%%jljjJNNJkklkj%JJJjk%LLJ%%%%mnl%jkjLLLJJjllj%KL%j%LJkkLKkkkj
56052c%KJJjjjjKK%%KJ%%Jklk%%%J%%LLkl%KjjJjkjJ%J%%KJJJkkjj%%%J%jjjkJJJK%kk%KJKJjJ
55977AK%j%j%JKJ%knl%KLNM%ljJ%j%kl%KL%j%J%JJkkj%%JKKKK%nl%%KJ%jjjJKJjjkj%%J%J%%%J
55902EJklmjLKkljKMLJjj%%llk%%JKJ%%J%l%%%KKkkkjjJJLJ%%JJJJ%kmk%J%%jJK%jLNK%j%jj%k
55826Bj%%%Jjl%JJj%%%%%%jjJJJKK%kkJJ%klkJ%kkjj%KKK%k%%%%Jjkj%jjKLjmkJJjJKKLJjj%jj
55751gj%%%JLLJ%jKKj%jk%KLjjK%jjKLJjjjl%K%j%jjjj%KJ%LLjmmkJLJJ%jmjJ%ljKKJkk%JLJ%J
55676A%%%jjjklk%J%JKJjjJKjkjJjjJL%j%JkjJJj%KKJJjjjj%%%jJLJlk%JLJ%kJLjkk%LL%%%jlk
55601c%LLJj%%%klkkkJOLjkJJK%%KjmjKKJKjkjj%j%KJjkjjjjJJ%jj%JJJJjjJK%l%J%jj%%kjJJK
55525bJkmkjJLLJ%%j%KK%jJJ%kjljJLKj%%LKJ%%jkJjlj%KJK%%LKklkjJJJKJ%%Jj%%lkKK%mkjKJ
55450B%%kk%LLJkjjkk%J%JJJJLJ%%%%Jklmj%JjJ%%J%JK%jJK%kJJ%jj%JKJkllk%%%jk%JJKJ%ljJ
55375eJ%%%KMK%jj%%J%%%jkjkJKJ%mkJKJJkjLK%%%jjjkk%KKJjk%JjmjLL%j%%%KL%j%%%JKJ%%%%
55300E%J%%%J%kj%%kj%JJJj%j%%%%jjj%NNKkmjjk%LKKJjkjj%kjJ%kjjKK%J%JKJkk%jjjjjj%%k%
55224eJKKkk%JK%k%KJ%%k%J%jJ%jJLL%jk%JKJkl%LMLkmllkJKLKjlkjlkJLLK%%%KLK%l%KJj%J%k
55149GkJKkljk%JKJjjk%lj%LJJKJlkjKKJJj%KK%J%Jjlkj%jk%Lj%LLkkjJ%%jl%KKjJLJjj%j%kkk
55074bkjKKj%kkJKJ%%J%jJJJklj%Jjjk%%KKJJJ%kkkj%KMLJjjJ%kkj%jk%KKJj%jjjJ%%JJLKjjJj
54999@%JklkJMJlkj%JJKJj%LJ%%%jjj%%%K%jkkk%LMJkjjjkk%%%KKJJ%%JJJJ%J%jjjk%J%JK%jjj
54923@JJ%jJK%llJJJJK%jJ%%kjljKjljJ%KJJ%jJKjjj%JLJ%%kk%Jkk%%JKJ%%%%K%kk%KLLkmjKJK
54848Djlkjk%%Jj%JKJj%j%%J%Jj%Jjkkk%%%LKKK%%%jjJJMMkolKJKj%%%JJ%j%J%%j%JJ%j%K%k%j
54773Ck%%k%LKjjkljJML%%jl%JjkmkMNKkkk%LM%ml%jJJ%%JKjk%KjjjjkjJKj%KKK%kj%jj%J%%%%
54697ck%J%j%%LNLj%%%jJJ%%jj%%JJJ%%JJ%jlklmk%JKKKKJjljj%KJJ%jkj%%KKj%K%%jj%jljj%J
54622d%%JJJKL%JK%kmlJJJJJkj%%llLOMJ%kljJ%j%j%%J%J%%kll%KJ%J%%%%%jjJJjKJ%J%%Jjj%J
54547BkkjJJJJlkK%%%j%Jj%%kjKJJ%jkkjkkJ%k%LKJKKK%JJjk%LK%jjk%LKjj%J%JJ%%j%j%J%%JJ
54472FJ%kk%%j%%%J%%J%%JkljJJ%j%jjKJJ%j%JJJ%%%kl%Jklk%LKjjJKjk%KLLJ%JJjk%K%j%%%jk
54396BjJKK%%KJjj%%jjjjkj%KKK%k%%klj%j%KK%k%%kj%LK%%JKJlkJJJJKK%%jJ%j%%jkj%%K%ml%
54321bKjj%JJJ%jjj%KKJJJJklj%%KJKKJkklkj%jJKKK%jjJjljKKJJ%kljKMJkl%%%%jkJJJjljLKJ
54246AJkl%%%L%jj%%JKJ%%jjjLK%ljJ%jJJJJ%%jKJJ%%lkLMknlKLJjJ%kkKK%jjjjjjJ%kjJJK%lk
54171d%JKLJkkKJkjjKLKJjljJjkk%%%J%kjLLjk%%%Jmmkj%KKJKKJJjj%%%%jkjJJJK%kkk%JKKjk%
54095fLLJ%jj%J%jlnk%LKLJ%%%klkKJ%%JJJJ%j%%JKKJ%J%%JKLjjkkk%j%jkjKNL%kj%J%J%jj%k%
54020B%jlkjJ%%JJJ%jj%%jjjjjJKKJ%j%J%JjkKLJj%%Jjkj%%JKK%j%KKj%%%jJj%JJ%KJ%JkmkJJj
53945Cj%JJJjkjk%L%JL%lkjjkkK%%K%%KKJ%jk%kkJ%JMLK%jk%j%%jJKjjJK%kmkJJJJJJllkKK%kj
53870bjjjj%KJ%jkkkJKJJJJJJjjjjj%jjj%%%JKK%jkkjj%J%KKJjkjJKKjkjkJML%mkJMLjjjJjJ%j
53794ck%KLLK%jjlmkJ%KL%%%%%%jj%jjKKKJjkkjLJ%%J%jkkkkJLMKjk%LKjjjkjJKj%LKjjjljjjj
53719djkk%%%%KKL%jJ%%JK%jkjJK%j%JkkKLKJjj%J%jj%%JJKJJ%j%lmkJLj%KJjJ%%KJllj%%k%%J
53644bJL%jkkJJkjJjkjkJKJKLJJJjlk%J%J%%%%j%%%jkjj%LL%kj%%jJK%j%kljJKJJ%%%KJkJJj%J
53568aklkkjJLLKLK%kjjKKJjk%KJjKJ%%kk%%j%JJjjjj%LJJJJjkj%JLK%j%llj%j%jKMKjmmJKJJj
53493A%j%%JKJ%%JjkkkjjjJMKJjj%JLKjkjjljjKK%%%%JKjjjk%%jJ%kjJKJ%%KJ%j%%J%jKKJKJlj
53418F%jk%J%JLJ%%J%%%jjlkJ%jjkJKJkjkkjKLJkljKLJkjJ%JKJkjklKKjjjjkKLL%%%j%JKJjjlj
53343aJKkkjkk%JJKMLJjjjJK%lkJKjjJJkjkkjkl%Jjj%K%JKKK%k%LJ%jl%KKjl%KKK%jJJJLJkklj
53267@jKK%%K%klj%LMLKknkK%k%jjKL%jj%%k%kjK%%J%JKJ%J%jkkJ%kkjJJ%KJjkj%J%%J%%JJkjj
53192b%%jkjLJjKM%mlk%kkJJ%%jkjjJKJjJLMMJkk%J%%K%jJJ%%%jll%LJjj%K%J%jkl%KKJ%%Jjl%
53117cMJJjkk%Jj%JKL%jj%J%%jJjJK%kjJkljJJJj%MJk%Kjjj%%jjj%MKjjjkll%%KJJjkjJKJJ%jJ
53042bJjKLKJ%kklj%JJjk%%%jjKKjk%JJ%jlJKJJ%KKLJK%kJ%%%%kj%klk%JKK%jkj%%kkJLJJJJJ%
52966D%jJ%jm%KKKJjkklkj%%%JKKKjmkJ%lkkjjj%j%JLLL%Jjjjj%JJKKJ%%lkj%k%LJjjJJjJJjlJ
52891gJKJ%kKKjk%KKJK%%%klk%j%KJJ%%jj%KJj%%jkjLKkj%kJJ%JJj%J%JJ%jk%jJKLJjj%jj%%%J
52816A%%JJ%j%J%k%JJLLjj%JjkkjJJ%jlkKKKJ%j%%J%j%j%%jJJkjKJj%KLJJjjj%%%%JkkklJLJJK
52741GKK%lmk%jk%%jk%Jj%%%j%MMJkjj%JJjkjjjk%KL%%J%J%%ljj%jJJJKKJ%jjJMKjmkjK%kk%%J
52665aK%jJKJ%JjjjjlkJJ%jk%JKKkkjJJJkjKj%KJjjk%%kjjKMKjjJMMjjjjj%jj%%j%jj%J%JJJKJ
52590Cjk%K%kk%JJ%J%JJ%k%K%kk%k%KMJjjk%jKMKjkkjKKjmk%JjkJKLJkj%%%%KJklkJJ%%%LM%JK
52515Hjkj%KjkjJKJ%%%jjJ%jjjj%KJ%jkjJjlljJJ%JJ%Jjj%j%KLJjkj%%J%jj%J%%K%j%jl%LKjjj
52440d%j%LL%%%JjlKLkj%JJkj%jjJMJ%jJ%jkjJJ%kk%%KKKJJ%%JjljJj%jjjj%%%Jkk%KJjjj%%jJ
52364fLL%%jJKjj%%jjkjjKK%jKJk%kjJJ%KLLJkJKJmmj%%jjJJ%kmk%LLMK%%KkjJjl%LJjkjklk%%
52289hKKKK%njLKJ%kj%j%%%kkJKJ%kjKK%j%%kj%%%%JJj%%%kJJLKkJLKK%jj%kkjJJkjjKJjljj%j
52214h%L%JL%jJ%%%%KKKKJjjjKJkljjjjl%%JJ%%KNL%mk%LJjKKjnk%%%J%%kkjjk%K%%LLJJ%j%KK
52138GKJkljkj%J%JjJjkkJJJJJk%KKJ%%j%%j%J%JLkl%JJLKj%%lkjJ%jjJJkkjKJ%kl%J%%%%KJJ%
52063Ckkjj%MKk%L%jJLJJKjllkjjkJJjjKKkjk%%%jJKJjkkkJLK%%%jkkKJKMLJjklJJjljJ%ljJLJ
51988@%j%jKJj%%K%%KJ%klJJkkjMMK%kl%Jlk%%J%%J%kjKJ%kj%j%KK%%J%lk%%%J%jjj%%%%jj%%J
51913g%JKLjk%%KK%ll%KKLJJJkkkj%JJ%jj%%%lkj%JL%lk%KLjlkjJK%jJJ%%KJkk%jkkkJJjk%k%J
51837a8JKJ%%KLKJKJ%JJljKLLJ%jJ%kk%KJ%JJ%kkjjklJKLKJJkj%%kjjJJj%jJ%%j%jkkj%J%j%jJ
51763iKMJjKKkkJ%J%%k%KJjjJK%ljJJJJK%kjKLJ%%J%klj%%%lkLNMJj%jjlk%KJKJ%kj%%J%%kllj
51688d%%j%%JJL%kjJJ%%%Jjkk%KK%%jlJKkljj%KL%kjjjJK%jjjklk%LK%JLL%%JJjjj%LJ%Kj%Jjm
51613dkJjj%JJJJKLLjjjJkjKLklkJJkmkk%KLJ%%LKjk%%%kjLN%k%Kjjj%%%%j%j%jkjKKJj%KJjJJ
51537B%j%j%KLjkJK%jj%jj%KJkk%%JJ%J%jkJJJJJ%ljjlljJK%lmk%KMLLJlmjKKJJJJjk%KKJ%KK%
51462F%J%J%%%%jjkjK%jJJ%jjjljJ%%kJKLj%KK%J%jkjJ%kjK%jj%LL%kk%KKJ%j%J%kklkjJ%JJ%%
51387Bj%J%k%JJLKlmkj%%JKjjK%kjJ%kkjJj%KK%%%JJJkkj%jJ%%%KJ%jJK%%JJJ%jjjjkj%kmkJJk
51312a2%JJJjj%KLLJJJkjJKJJjklJLKJJ%%klj%kjjKKLKJJK%mmjjk%LLKj%jJKKJKKklnljJJKJJ%
51237C%kmlj%JJJjj%%j%JJJLMJjk%%%jllk%%%%%%%%J%J%JJJJK%jkkjk%JJjj%%%%KKjjJKjjljJK
51162fJKjjkj%JjjJKLLKKMJkjkmmjKKklkj%K%%%ljJKK%lllk%LK%KMJJJJjjj%Jjj%mlKMJJJKLNL
51087I%jlkjJ%LKJjj%KJkl%%JLKllJJkkKMKklkj%kjjJJJJkk%%JJJj%LKKJJj%JkjjJ%jlj%%%JJJ
51012EjkKL%k%KJKkkkJKJjkj%jjjkJLJj%JkjjJJL%%kjjjjkkj%KKKJKJJ%kmkJkm%NNJjkjkkjjjj
50936iJLJjj%%lkjJLJkkkkjjk%%Jjj%%%j%JJjkk%J%%JjkjJLMKjJ%j%jkKKKKK%Jj%KjkkJJjjKJJ
50861iJJ%kjJJkkj%%%KJJ%%kjk%J%JJjJJ%%%%KJ%KJJJjj%jj%%jJ%%KMKkkJ%l%K%KLKMJjJLMLKK
50786B4KJLJ%JJJK%%J%%K%j%JJJJkkJJjjjJJ%JJJkml%jkkl%JJjklllmjkjklkJjk%JjmlkJK%kmj
50711a5jj%KMJJJ%%%%%LLJjJKJJLLJJkjKKj%KKJjl%%klllmjJJJJJ%JKjj%J%J%jk%LKJkkjJJjj%
50637BjJj%KL%kmj%%kjKLLJjj%jj%jjKOMLJ%llJJJ%J%J%%%%KKjlj%JJ%kkJjk%J%%%kllj%%jJK%
50562CjjkjKJk%%%j%%j%KJj%jlJK%J%%JJjJLL%jkJ%%KJ%jjjkjjKKLJj%%jj%J%%KKKJKJ%JJJLOK
50487C1K%kkJjkjjjjj%JJ%kJK%j%%%jjkmjJ%JJ%JJ%jj%LJjk%%KJ%%jJKJ%%kkjjjkJJJjjkklkKJ
50412A1jjj%%kj%kjJ%%kmlJJjkkkjjlmllmkjjJjkkjJ%%JLLJ%JKjkjJMKJKK%%jjJKJJjJKKJJ%jm
50338a5kLNLKKLJkkklkJJJLM%jklJMLK%KNLJJLLMLLLMLJKKJLOOMJJJj%jkkjjKLjljLjonmmJ%lk
50264D2Jj%lnlkllkkkljk%%jjjjllljjlk%j%%%KJlm%JkkjKJJKJjml%MLJKKKLLJKKk%KJJMNJ%JJ
50190B0kkjljMM%%KLLML%k%%KKJJJJKJlmkj%%l%K%lmljMMJjklmkkk%JJJJjk%JK%kjKJJLNK%k%K
50115B9J%%%MMKjJKjk%JkkJK%jkKJ%J%lllkJJkkkljJK%llllom%LKJjllllljjkmnljJ%k%jj%jjL
50041b7K%j%JK%%JJJ%KLLJKJKLMKKK%JLKk%MNJklkJMKKKJjj%KJ%jj%jkJ%JJJjkjJK%klmj%%nmm
49967Bl%JJJ%l%JKK%jJJJK%kjjjJJjjJJ%%KJJL%JJll%jjjKLKmmk%%lllljLJKLJ%Kjlj%jKMJ%%J
49892CjjJKK%%jJKKKJ%%jmlJK%k%jj%%%%%%JJkk%JlkJjk%ljJJk%%%LKJKKKKKKL%j%Jjj%jKNJkk
49816A4klllKLJ%lnnkjjJK%kjjkjJKJ%%JKJ%kklJLK%k%LM%%JJjk%LLKK%%jjKKJj%K%kjKJ%J%kk
49742A0kjk%%lmkj%KJ%JJ%%Jjk%%kjJ%j%JJ%%LKJK%%LKkkKOOLLMJkJKJjjJKK%j%KJk%%jjKK%jk
49668C5kkjKJ%%Jjl%%%jJkmkkkkjjJ%jjJ%mm%KLNKj%Jlmlj%J%jk%JKKK%j%%jjJJkkjK%ml%JK%J
49594EKLMJkk%%lkj%JMMJ%JJJ%kkjKM%jKNLlmk%%%j%J%KL%%jl%%jKMK%jjllkjJJ%k%JJjjk%%kl
49518Imjj%JLJjJ%kj%lkJLK%jJJ%%JjjJ%JJ%kj%KLKLLJJjjJKKKj%KjjjJ%%JMJjjJKJJ%%kkjjj%
49443B7%jJK%l%jlJJkmkl%KML%kl%Jjj%JKKj%K%jJLL%%LMJmlklk%Jj%%lljJJ%jkj%jJ%lmlk%KJ
49369D%JJJlkKKj%KLJkj%%%J%jkj%KK%%%j%K%kmk%%%jkkk%K%jkjkm%L%j%K%%%%KK%%KJ%JK%%JJ
49294CKMLJlmk%%KJJ%J%%%jjkjjJKKKjj%Jk%%%%JJjlj%jljJKJj%J%jj%%kk%JJJ%jKKjj%%jk%J%
49218ajJLLJjjLJmm%KJjjjJKLJ%jknkJJljJKJKJjkjJJ%kjJJJ%K%JLLJkk%jJ%%jjj%J%KL%lkKJk
49143Elkkj%JJLLJJ%J%kll%KKJJ%%JJKKJkjK%kl%j%Jkl%jnlLLJ%KjKMKjk%%J%j%%%klkJ%%J%jJ
49068Ajk%J%%%jmJMK%j%%J%jJj%K%j%jk%LJJjkjJLKjjkj%%jJKKjk%KK%mmkJ%JKkj%JKJ%jjk%KK
48993@%%lkjJK%J%%%jj%%JJkk%JJkjJKJKK%kjjkk%%l%KLJJjJ%kl%MMKLK%Kkmk%%JJ%kk%MJ%LJk
48917F%jlkJJKJlkJ%jjkk%JLLjk%J%%%j%jjjjjjKK%JKJjkJL%kjl%%%KJ%JKjjjk%JJKjjk%j%Jj%
48842dJJJlkKL%jj%JJ%JjlJK%jJ%jj%LJlkMMkkKJjJJjkJKJJjkjlk%LJJ%%j%%KJJkjj%%%jjKJ%%
48767BJJKjmjJ%jjJK%kJJlkJLL%%%J%%%kmkll%JLKJKJll%KJJ%Kjj%%j%J%%JLKj%%KKJjj%jjkjJ
48692CK%%JJ%jjjJJKJ%jlj%JJjj%k%JJj%%%%%jjkJK%JLK%jklkjkjJKjjjkjKK%j%KKjk%KK%%%jJ
48616A%kj%%%jj%j%KK%%%%JKJJklkjjKJKKJ%KJjkjJJ%JJJjjjj%jJJJ%kkjj%%%JJJ%kJ%jkkjJj%
48541eL%m%KjkK%%%ljJK%%lkLKjjkJKK%KKJjJLJllkjJKKJJ%%LKlnm%JJjJ%kkLKj%jj%%jjjJLjl
48466hl%KKKLK%jjjkJMK%J%%%kkjjjJJjkj%%KLJkj%%KJ%%J%jjjj%%JKjJ%kljK%%%K%jKMJ%JK%%
48390GjjJjm%%j%%%jk%JJJJJjk%NL%jjkljKjkjJJkmjNK%jkjjJK%k%JJJKLK%j%jmljlkKMJjJKKk
48315aj%k%KJ%LKjkj%JKK%KJ%%jj%%%j%KJjjjkjJMJmkKK%%j%kk%kl%J%%LKjlk%%k%j%J%KKjjKK
48240@J%Jjk%L%kkjLM%k%kjjjkJ%%jj%%%%%%kjJ%%%%jKMK%%jJJJK%j%jm%KJK%JMKjjjjJKJ%jll
48165B%JL%kJK%J%k%%k%kjJKjjk%JJJ%%J%JkljJJJJ%jlk%KJJjJJjJL%j%Kjj%j%jj%%jJJlkkjLL
48089@jJJklk%JJJ%kjJKJj%%jjKJ%%JL%llkKK%jj%%JJjk%MKjj%%jkjjJJKM%jKKjj%kkjjJJkkJ%
48014d%jjJK%jjj%%jllkj%KKKMMJJ%jj%JKLLNNKLNPPQPJ0RRJ0J1J0J3J6K0K1J6Onj5k0k0k1k1
47954A05j8j5j1qpnlnonlloplkJLj%%%j%%jkjJ%JLJ%JJjkJKJJ%kk%%JJkkKKK%kjk%%JKJKjjkkk
47884a%KJ%jJLK%jkjkl%LJ%%jJKJJjj%%KLjljjj%jJJ%%jj%JkjkJJ%k%jj%KJJKLJklKKJll%KKJk
47809Bj%%%jj%JjjLLJ%jjjjjJ%jj%J%JJKklk%JJJj%%%JJ%jJJkjKjk%j%jJj%%JJK%jJjkjjk%%JL
47733cLj%%j%%jKN%k%KJJ%%jljKjjj%%J%kk%%jjkk%LKKkkj%jjj%KJJ%jjjKK%lk%KJjJK%j%KK%%
47658bJKK%jljJ%J%j%%%KjkljKK%J%l%KJjj%%%Jj%JljLLkkJLKK%%kkJ%JKJjjjk%jj%JJKKjkljJ
47583bJ%kjJJjjkkkJJjjJ%Jj%j%jJJJjjJ%JJKKJjjJJjljJ%jjk%%jjK%%JKKJJ%jJJ%J%klkJKKJ%
47508bllj%j%JJKLLKJkk%kjJLLK%%JK%k%KLL%j%jljj%%k%J%j%j%j%Jjjj%KLJ%jlkJ%jJ%kjkkjJ
47432e%%j%%mk%JLKjJKjJK%lkjll%J%JKJkjKJj%J%%%jJJLLL%kk%%j%J%%%%%J%jJJ%jJKKKKklkj
47357all%KJ%JKJ%jk%JJJLK%kjKK%jkkj%%%klj%KMjlJL%jjk%KJj%K%kkJJKLLJjkkJJJJJj%lnjL
47282@J%kjKJjj%JJJJjk%kkJJJ%jJJjj%jjk%KLK%j%%%%jlJKKKKK%kk%jjKK%%%jljKNNK%j%kjJJ
47207A2ll%jjjJ%jl%LMK%jkk%%JJJ%JLKJ%jjkk%jJjj%J%JjjLLJ%kjKJlkj%JKLK%kj%%%Jjj%JJj
47132A2JJ%kmjKMJjlJKLK%kj%%KkmKKK%k%LJ%jj%%JLMK%%lm%LLKKjjj%jkJKJK%jJJjJ%jJJJ%%K
47058C5Ljom%%KK%k%%KKJJLMJ%kkJJjJKK%J%%j%JNMJj%lk%KKK%JLK%JK%%JJLNJjJKKJ%LMMKKJJ
46984I8KMMJJKKLNNMNMLKKJLKMMNMLLNPRONOPQQPJ0J3RJ0J3J3J8J8J8J7J7K0K2K4K9L2L4L8M4
46929F43N2O2P1Q3R2R8J12J31J50J82K22K72L37M16N24O49P82R10J002J072J160J273J427J561
46904A3283J572J567J706J918K122K435K855K953K106K50j768l013l423l484l367k986k467
46887A2259k010j646j352j127r43p92o75n74m87m15l50k97k45j97j60j27r8q4p0o0n3m8m2l7l2
46862C38l0k6k1k0j8j5j3j2j4j4rpqj0j1roopqmkkllnopnklmllkkkJK%kln%JjljJklkJJkmj%jk
46801i%JKKJjK%k%%JJjk%jjJJ%k%J%%Jjkj%%J%jjmkKKLJ%JJJJjjkm%JJj%LMKjllkk%K%JJ%jk%J
46725a1jlkjjJ%%JJJK%KKK%Jjjjj%%jkMONJkllj%j%J%%KJJ%kkjlk%JKKjJJ%%JJjkJJ%jjjjjjjJ
46651a1KjJMKkjJJJ%%j%JK%%JLJkllkjJJJMM%klljJ%%%%%Jjj%%lmkJLJ%JKJkljKKjj%%K%%Jklk
46577a3Kj%KKj%KJkk%J%kmjJLKKKjjJ%%%%JKJ%%%JJJ%%%J%JJjJ%kljJ%%JJK%kj%jjJJ%jLJljJ%
46503aj%KL%k%JKJjj%k%KK%kkj%jj%jKJlkkJJ%k%KJJjkkkJLKjKJ%J%kjJJ%jJ%jj%J%%%j%JJJK%
46427AJjkJklj%jJ%j%jjjj%KKjj%J%%jkj%JKKLLjmjLL%jJ%jjjKJjl%LK%%jkkl%LKJ%kkkkjJ%jj
46352a2JJL%kjKJJjk%JLKjjJjk%Jj%%%JJ%jkkJLKJJ%jk%kl%kjJJJklj%JJkljjkJKKJLK%mj%jjj
46278b0jJLKJ%jkKLJ%%jjjj%J%KLJkjJK%k%KKKJK%J%%j%J%J%KKK%kk%jkJK%kjJMLJj%jj%%kjjM
46204FL%kjkkkjj%%J%jkKMLJJJ%JJll%J%%%kj%%%JMJjk%KK%J%jk%KJklJKKjjkk%JjjKJjj%%JJJ
46128GJ%JJjk%%J%j%kjjjKJ%JJKK%kkl%KJkkjJMKjkjkllj%kjJLML%j%k%%kjKLJJJJ%jjjJJkjKK
46053GJ%j%%%ljKKJjjklkj%J%jKKLK%j%%K%kljjj%J%mk%K%%%JJj%J%lkKKML%kkj%k%LKJ%j%LKj
45978GklljJjlj%JKK%%KJkkkJKJkjjjk%%KLJll%%%KJJJjkjj%JJKJLJkk%%JJj%%K%J%kj%j%KKj%
45903Ajj%kl%jk%MK%jllj%KLLJkklkk%LK%j%%JJJj%%JJ%jJMJj%KKjjjlkjKMMJJK%kkjj%JKKK%j
45827H%KJj%LKjjjjKMNMOONPPRJ1J0RJ0RQJ1J4J3J4Pmj5k0k2k1j8j5j2j2romllmmjlk%kk%%%%j
45767ajklj%%Jj%LKJ%ll%%JKJ%kljJjkJK%%JJJJj%%%KJLL%%JJ%jmkj%JK%kjJ%%jjKK%j%%%%JJJ
45692BjJLKjllkKK%jJK%J%%jljLJ%j%%j%%kjLK%k%JJj%jj%JkljLNL%kkKj%%kkJLKJ%JJ%Jjjjj%
45617FKJjml%JJJkl%%jK%JLJ%j%%jjkmljJ%J%klkJKKj%J%%kk%k%LJ%KJJLJJ%kllJJJKjk%JlmkJ
45542a4KMKj%Jj%Jk%%J%%%%llKJkjj%LKKKJJ%%Jjj%jkjk%KJj%%kljJ%%J%j%MLKML%jkl%J%jJJ%
45467a%jkKL%ljkjjJJJjk%JJJKK%JjkjJKJ%jJj%%%JJjjKKlj%%j%%jjJ%%%%j%%%j%%%j%k%KJ%jJ
45392dJJJJK%jJKJkk%K%jjk%JJLKj%%jJJkjKKJlkjJKJj%%j%%%%%JK%%J%%kj%%jjjjkjJjk%JJJJ
45317@JJ%%jkkkKK%jl%JJ%%JJJJL%kkl%%KLLJ%%jJK%JJJjkk%%KJ%%KJjjjj%%kkKJJ%j%j%KJ%LL
45242A5klk%k%kj%JjKKjJK%lk%K%j%jjkk%j%J%JJ%jjJ%%%jk%jkJKLK%jjj%jkkkJMMJ%jjKJ%%%J
45167DjklJJj%K%k%%%J%JJJkkjKLJJKJ%jkkJKKj%jJ%jjjk%%jjj%KjjKLjlk%%jJKNNJ%jjjJKKJJ
45092A5jjJjlkjkk%KKKJJJ%kll%Jjjkl%Kkl%JJjj%KK%%KJ%%K%%J%j%%j%KJjkjJ%j%JKJjj%JJ%%
45018F%%jJ%kj%kkJJj%KJk%KJJ%%jj%jk%J%%jmkJ%jjKNLjj%llkJLL%k%KkkjjjkjJKJjKKjJKJj%
44942aKJJ%jjkk%J%jjJJJJkjjjkkjKKJJJJJJj%JJ%%jj%jJJ%JJjlkljJJj%K%%KK%%lljKJjml%KJ
44867a0%Jjkj%j%JK%JKJjjJK%JKLj%%kkkjJKJjj%LJJ%jJLLK%j%KKJ%j%jj%ljJJjkk%%%KJKKJ%%
44793I%%J%kjk%KKj%M%j%Kjkkjjjk%jjkljLKjl%LKK%lkJklk%J%%%KKJjJLK%k%L%kJ%%j%jJJ%JK
44718FLjmjJLKJJJklmljJJJjkjj%KLJJKjjkjkkj%%%jJKKjJJ%%Jj%%jkJLLK%ljJjkjJjlj%%%%JL
44642@Ljj%%jkJMKkj%JKJJ%%jj%%J%KJ%jlk%J%JKJMLkljjkj%JKLJ%kkkj%J%JJjlk%JJJJkljJj%
44567@Jjkk%Jj%%jkJKJ%%%%k%KJJJj%jk%%J%%%%JJ%JKjjjJKJkk%j%%%KJJJKJ%jjk%%jk%JJ%J%k
44492@jJjjlkjjJKL%j%kjLJkljjlk%KKjklkJKJJJMK%%KKJk%LM%j%jJ%%%LL%%KKJ%jk%%Jjj%KJk
44417A0kKJjjjkjjk%JjklljJJj%KK%%kkkjj%%j%%jLK%%%j%K%jKK%kJ%j%%JJ%%JKKJjlllk%jjLM
44342dKNN%%%JKJkj%K%kjJjjk%KK%KLJJJ%K%kjjkjj%JJ%jjj%J%J%jklj%KJ%%J%%Jjl%%J%kkklj
44267cjlkjkj%jjj%kl%KJjjjjJJjl%%%JKJLLLK%JJJ%j%%%%%LLKkj%JKLLJjLMKJ%j%jjkkj%jj%j
44192Fkkk%kkjjjJJJJ%%JKJJJjkJJkjjjKKjkkjjJJ%%J%%KJ%JLMKjkkl%LJKKK%jJJjkkj%JJ%jjJ
44117HKJljJLLjkj%jjj%J%K%lkKMKJJkl%%kmk%J%%jjJL%mk%%j%%jjjJJj%KLjkkJJK%j%%JKLJk%
44041DJJJlnljk%%jjKjlJJ%%JkkklkkkJKJj%%%j%K%klj%%JLKjjKJjj%LL%%LLJKJkj%jKJJJJJ%J
43966@JJ%jmljJJJ%%LJJ%knJK%%k%KJj%%JKJ%j%%%KKKJKKJJjJ%%jJJ%jj%LJ%%jk%jj%jljjjkl%
43891aJLKkmk%%%j%%%%ll%kl%J%J%J%j%JKJ%jjJJj%JJ%JjkjJ%%%J%kjJKLL%jJKkmlkkk%K%%%KJ
43816a1JJjjjkkkkKL%j%KLJkkLK%j%JJ%%%JJjjKJjkk%J%KLKKLJJ%ljjj%%KL%%jjj%J%kjjjj%jk
43741g%MMjjJJjj%JLJj%JjJ%kk%JKJJjk%j%JJJJJLKjj%kJNKkjJjkkj%%J%jkk%KKJ%%k%j%%KK%k
43666G%%jk%%kjJLM%klllk%KK%j%%JKjkklkj%j%%jj%%%jkJKj%J%%%j%KLKK%kmk%Jkj%JKJKL%kj
43591hjj%jjljKKjK%ljJJJ%%Jjk%KLNK%Kjj%jJJjkkk%%%%%%JK%jkjjKMNKJjkJKMMJlkklkjkJKK
43516CJLJk%L%kjJKKJ%%%%lk%%jmlj%JJJjj%JJkjjkJKJklkJ%lJJJjKLK%LLJjk%Jjkj%jkkljJLM
43440aKJML%jkj%jl%jjKJ%jkjK%JJJklk%KjJKKJkk%%%JjjJJjk%KjkKL%jj%%%%j%%%JKKK%j%lmk
43365eJKKKJKjlkjj%%JKJkjJ%jjjJjkk%%jj%%J%%jJKjk%jjKKKKJJJjj%lkJJjlJKJ%JkkJJJKJJ%
43290bmkk%KJKLKJJJkjLMKjkk%%jkj%K%%%JL%kl%%jJMKlkJ%%JJJjjjj%%jjKKkkKK%jkkLLj%%jj
43214BJ%jjjjk%LMJ%jlk%JJ%kjkjjjjjjj%JJK%jj%%kkjjjKKjjKKjkkjJLJkjJLJKKjl%Ljj%j%LJ
43139ej%KMJ%%jkJJJ%%%%%JKJjJ%KK%%Jj%JJJjkjKJjKLJ%%JK%kjJjkjJJjjkljjkjjkj%%jKJ%%j
43064@k%kk%jJ%klKL%mmJJJJ%jJLKJJjk%KNKjj%JJ%%j%Jj%J%%KKKJJkkjjkkjJMJkl%JJJ%%%jjj
42989A%jjj%J%kkjJJ%%J%%J%jJ%j%JJJLLJkkjJKJJJjkjkljJ%JJJjkjl%%J%%JJ%jj%JJJ%JJJJJj
42913C%%%KKkmj%j%%j%%JJjljKKL%jjJJj%JKjmljKNML%%J%j%%%jkkjj%%JKKJ%jJJmlKOL%%jljJ
42838IJ%jkkkkj%LMKkkj%jjKK%%j%jllk%KKKJ%jknlJLL%j%JjKML%klllkj%%JKJ%%%jj%J%JJJ%j
42763b%jjJ%jJKlkJJJK%j%%J%%%JJKKjlkKJJKJlkj%%J%KKjmmmjLKJ%JjjjJJKKJ%jkmlj%LL%kJ%
42688dkJJjKKjjJJKklkk%Jk%Kj%KjljJML%lkjjjj%kkJKJKK%KLjkkkjjljJK%J%JJjJKJ%jjKMJ%J
42612aKJJKLKJkmkJNL%jlkjJKL%jKkl%%%L%kjKKJjJjnnkJ%j%JKJJKjj%LJJkmmj%KKjk%J%j%JKJ
42537CKJjmj%JLLK%llJJk%JjlljJJJJjmmkLMMKKLK%jj%jkkJKjjKML%%jkjJJjlk%KJjj%KJjlkKK
42462Fjlk%%%jjJJ%%Jkljjj%JJJK%J%kl%LLJJJJKJ%lkjJKKJ%%j%J%mjK%lkjk%jKKJKj%KKJJLkm
42387Dj%jk%KJkjKLKLLknmkJJjj%KKLJkmkj%%jj%%kmm%MLJkJMLjJJjJJmn%JJ%jJJK%lj%JJ%klJ
42311gJ%JKJ%JLjkJLKjll%KJ%jjjLKjkj%%kJK%%K%%J%%%jJJkkjKLLJJJ%kkkljlkJKjJLj%Jkj%%
42236b%JJJKklkLL%KKjmk%jkKKkl%JJKJJ%jj%jlk%LJj%KKJjjj%JJKKK%klj%KLKkl%JJ%%jllmj%
42161hKK%J%kjKJJjljjjJJJKKkKKJKJ%KL%kkk%KLJkjjj%mnk%%JMLJKLjjkkJJjj%JjnkJKjJJ%k%
42085dKLK%kjKKK%j%j%Jj%LJljJLK%jlklk%%JMKklk%JljJJllj%%%JjjJK%k%ML%J%k%LJ%%j%%jk
42010c%KKJ%%%jjjllkJLJk%jjJ%LMKjkjjjkmmjJJLLJKJJKjk%%j%K%JKK%k%%%kjMM%jkmj%jlJLL
41935Ajkk%JJKLKJK%%jjjkk%KjjKLJkkLKjJ%jjklkkKML%kKL%Jjj%kjjjjKM%mlJLLKKLJ%jlmjjJ
41860GJJJjljjkjkkjLLLKJkmlj%J%%kljjkkK%lkJJk%J%lj%JKJKL%jJKJJKKJjk%%kjJ%KL%jj%JK
41784AkkJ%jkkj%JJJJKLK%ll%%l%LJlk%%%%J%%j%jLLJ%%j%%JK%mkKK%JKjjkjKK%kJLJKJklkl%J
41709b%kJJKMKkjJjkjKK%kljjkk%%jjLJj%kljJLL%%JJKMJll%J%j%KK%JJjmk%JJ%%JKJJKJJJkk%
41634E%%jjlJLJ%JK%ljJMK%%kjJ%l%K%%jj%jJLJjj%jkjjlkK%lllkj%%jjkjKKKLKKNMJKLJkl%%l
41559DlkjJJjjmmJKK%lljLL%mkJ%j%KKkjMMKMM%kkkJJJ%jJjkjJKJj%%mljjj%JLJjkj%%kkj%jlk
41483a7JKK%%JK%%KJ%jJKJj%%jjjJLK%jJ%%j%jKN%kj%J%%klkj%JJJK%jKKjJ%jlkJOKmk%%%j%%%
41409bkkjJJjljKKj%LK%JKkmkJLLklKLKKL%l%Jkljkj%%LJjj%jjjJKLK%kllJJ%%%j%%kjkJMMLjj
41334Aj%k%LJjj%KJKjkkmok%JKJJJLJKJkjJ%jj%JJK%j%JLLjmml%LJJ%jk%jkKJjjJL%kjj%LMJJK
41259F%kj%%LJkkmm%j%KJkJNKj%J%%K%jjjjjKL%kjJ%jj%Kj%jll%%%%%%KNNK%jkkkjjkj%jJKKJ%
41183Bkkj%%J%%%j%j%jkljJ%jJJkk%%jLNJlmjLMK%JJ%kljMKkkKMLJJJJ%%lmjKK%%j%KJj%jk%jJ
41108AKJJJ%%j%KKJ%kJJkkjjJKJJjkl%J%llj%LJjJKJKML%kkjkljKJjklJLJK%jjkmjJJJJjjJJ%j
41033@%J%%%jLK%JJkkljK%kj%JJ%%%J%jkllll%MjkJMJ%lk%LKJj%JKMKjj%KLjlJKjkjj%%%%%%K%
40958A%KK%kKK%Jjkj%j%jljLLLJ%KKjlk%%j%JkjjjKK%k%%%lmmkJKKK%j%J%%j%%JJ%kj%KK%%JJ%
40882A%K%JJLKjmmkKLML%%%JJ%lkkjkkmk%LKjjjjK%llkj%JKMMJ%%jkk%jj%J%JKK%JK%jjk%%jkj
40807eKKjk%%JkkJ%JL%JJLJmpkjjKKK%%%Jk%MKjkmjKKJK%jjJJjJLKjjlmlJLJkmk%jjJjk%KMK%j
40732hjk%KKjj%%KKJJ%kkJKJ%jj%KKJjJMK%KJjjkj%KLL%kmmjj%JjJLLJ%KK%k%JJllj%%kj%%Jlk
40656b%%jJJlmllj%JKJkkLMMM%l%K%JKJkJJ%kKJ%kK%jj%%k%J%jkjLMJjJJlljjjjj%K%%%JKJjjj
40581bjJJmk%J%MMLjjj%J%lk%KMLjjJJL%kJJj%kjKKJJj%Jjlk%kj%J%jkljJJMLJ%jJJ%Jj%jkllj
40506bKLJ%%%Kj%KKK%J%llklJKk%K%%j%K%l%%lmJKMM%kjkj%%LN%k%Jj%j%%kl%j%J%jjJJ%%jjJJ
40431@J%KLKJ%k%JjlkkJJ%KLLJ%KJjkkjJJ%kjkll%KJ%k%%KK%%J%kmlj%kkjj%%K%jKLKKjlkjLMJ
40355@l%jjjJJ%JJj%KKK%jjJ%J%kkJJ%kk%KKjk%kkJKJJLJkkJjkjJKLJjJLK%%jjJ%kkJ%kj%jJKj
40280Blk%kkkj%KL%JJ%jKL%kkJJ%kk%jjjkj%JLJ%jjjJJKJjj%kjKK%kjJ%%kjJ%JJJJjKK%%KK%kk
40205bjJJJjk%JKJjj%jk%KL%ljJJKLJ%%JJJ%kljjk%J%ll%kl%K%jjJJ%%JjjJMMLJj%%kj%kjLJjj
40130bJjkJJJKLK%jjKjjK%jj%J%j%lmkJKKJJ%lk%JLLJJJKK%jjkkJK%%jjjk%%Jjj%%JKkjj%%KJJ
40054EjjkklJMKkkjJKLKjj%%kJJJkk%%JKJ%jj%jkkKLLJjmkjKJ%JJJKKkkkjjjkkj%jKJ%JJ%kJK%
39979@jJKJ%jJJKJJkjj%KKjjkl%%kjkkJKJ%kk%JjjJJJKJk%%%JJ%%%%%%JNLlnkJL%%LKkj%JKJ%k
39904FljJJj%jj%LKKKJ%jkkjjkj%jKLJkjJJKjkjj%K%kkkj%%%%KLLJ%%%%kjjmlKMJ%jJ%jKL%%jk
39829CjjKLK%jklmmlljK%%JjlJKLJjjJLKKJ%jjkkKK%JJJkj%KJJ%kj%J%kk%%JJK%%%%%%K%jlj%%
39753cKJ%j%jj%JKJkjjjjkjKJ%J%j%Jj%JJKL%lj%KLJ%KJ%jj%%ljJJ%KJJJjkjljK%%jjk%%KKjlk
39678d%jkj%J%J%%JJ%jjkJLL%j%%kjLLjjjj%jjKM%kk%JJKk%%kjKJj%%JJKJjkj%KLJlmk%%%kjjJ
39603gJ%kk%LJ%kljKLKKKjjj%jJJ%JKL%jjj%jj%J%lljLJjjjj%%jjJMKK%jlj%jJKjj%jjjKLjmkj
39527a2JJKKL%%jk%KJJKKjjkkk%%JLKKLKKL%%jjLLjj%kkk%jjLLkkkk%Jk%JJjjJJjkklj%J%LL%l
39453@jkk%Jjkk%J%kjjJMK%%%jjlkJ%J%JJ%JKKK%lkj%JJKKkj%%KklLNLKjkJ%lkJKJjJJlkkkjjj
39378hLLML%j%%%%J%kj%JJlojJKJJLJj%kmj%JLKjjjkJKJkjKL%k%JkkkmkJMM%ljJLJkkKK%jkk%J
39303eJMJ%%KJKKLK%jkjj%jjj%JK%kjJLJJ%nmJjjjk%LJj%%%%%%%k%LLKKJJML%JJK%kkj%J%kkjm
39227Ikkk%KK%jklkjlnkkk%KKKjkkkJJ%%%%LNLJJ%JKJjnmlkKNLJ%j%jkk%JKKJKLLJ%jkJ%k%%j%
39152B%kjJJjj%%JJjmkJKMKKKKjj%kl%KJKKkjJ%kljJJJ%k%jlkJJJJ%J%jjj%J%J%%JJJJljjlj%j
39077f%%jJJJKJ%JK%%JJkj%kKMJ%%j%J%klkJMJkjkklk%JJ%j%Jjmlj%LKKNNL%mnjJ%JKjljKJ%%k
39002djj%J%jjkJJJJLLJ%k%%mljkj%%jkk%NNLMKJjJLKkmlljjklkj%%J%KJJJ%JKKJ%%JJJjjJ%jj
38926a%jjkJJKLJ%j%J%knljLL%%L%mjJJKJ%jjjjjK%%%%%K%l%KKJk%KJ%kjJKKLL%jj%jjJ%jJ%kk
38851Dlj%%jmljJ%KJ%JJjjJJJ%J%JMM%kkjKKJ%klj%j%K%%%kj%JJMJ%%%jk%Jj%Jklj%Jjjk%KKJJ
38776BJKLKjkmj%%%%%jkmk%jjjkkKJJ%%%%%kkJKKK%kjjjjlm%LJjJJJjkj%jlkKK%%%JMOOM%jjk%
38701cKJ%%KKjkJK%kkKJlkkjJKKJ%%%%%kmkjjJKK%kjljJJj%KKJ%MLJ%%jklkJKLMLKJJ%jj%j%K%
38625A1kkj%%%%j%K%%LL%jJ%k%J%lkj%jjkkjJJJJJjkJL%jJJj%%JLK%kj%kJJJJkl%KJJJJjjjjlj
38551C%KLKLJlm%KLLJjj%%j%%JK%%kkj%JJjjjj%Kjj%jjJ%lmljjk%JKKjk%MKkm%%jj%j%NLkk%kl
38476hlkjJKKLL%JMK%LjljKjkl%%%JJ%nmjMOLJLJJLJJJj%kkkJ%%JjJK%jJK%kj%%JK%%j%jjmj%%
38401F%J%JJk%%klkj%%jk%%k%KKJJjjlj%%JJ%JLLJkkkmk%JJjjjJJKKJkjKNK%lkJ%%%JJ%J%%jkk
38325bKK%%J%%%kkKKK%klkjJJ%lkj%JLK%J%%JJjkjj%KMJkj%JK%%LKjkjkkl%%lmkLNLJj%J%k%J%
38250@%JJKKJKjkjJ%%jmkjkkjKMLJKjjKNJ%J%klmj%jjkJKJjj%Jjj%%j%%JJjj%JKJJJLJJLNOM%l
38175B4jJK%jmk%LKkjJ%mk%KMLK%KK%JJJKLLKKJ%%kj%jj%j%lnm%J%KJL%kkklljkjkk%J%%jjjj%
38100A3%%jkmljjJKKJjjj%jllkllkmj%%jJkkkkk%KKjkj%k%JKLMMMKKKKKKKjk%J%kj%jKMLJJJ%J
38026IJK%mmk%%lk%JJ%JJ%llkjjlmkLKJ%k%MKj%J%KJkJKJjjJkkJJj%JjjJJ%%JLKkjk%J%jjJJJj
37951dkj%NLJjkjKJJJ%jjlk%%JKKjl%KK%kkj%%JJ%jJJj%Kjk%%KLkl%JKjl%L%KMK%Jj%J%jjkmk%
37876b%j%j%J%kJJJKJjjjjKKjj%JJj%KJ%LLJ%jjjjk%K%lkjJjkkk%j%KLJKJj%J%jkkJKKjk%%%jj
37800cllj%J%%%KKKJJJ%jj%JJJJK%%%%k%J%%JJjlj%J%jkkjj%lkj%%KLJJJ%Kjk%JjJJK%k%KJ%%%
37725@%j%%j%jkl%KJLJKKLK%lj%%LKkjJkmlk%JKK%j%%jJ%JKjlj%%KK%JJ%kmmkJ%%KKJJJJJklkj
37650fJJJKKJj%JJj%JkkjJJ%JK%JMKjlkjjjjkj%%j%%jjj%JK%ll%%%kjKjl%JKJjjjJKKjj%K%JJj
37575hkj%JKLK%%J%KKKJjKNK%%JLKj%Kjjkllj%%%%jlk%kmjJJ%kkj%kk%kkJLJK%kkjj%Jjjjklk%
37499b3%MLKKK%%jjl%LMKK%%jjJLJJKLJ%jmj%j%Jj%j%kl%jjkj%%%ljLLKjk%%%%JKjlkkjJ%lkkj
37425b4jkKLKJKJJLjkjj%j%%%j%Jjkj%jjjjjKLKJjjJ%JK%%JJjjjj%JJMM%jJJjjKKKKK%kjJjJLK
37351C%j%j%%J%kkKKk%%lk%JJLJKK%jkKJ%JJ%%KLKJ%j%j%KML%jJ%k%JKJJ%J%%kml%JJ%kljllk%
37276EKKJ%k%Kjlj%jmjjJ%JJ%jJLJjk%JJj%Jj%JjjJJ%JJ%kj%J%l%JjjJJ%jj%JjkljJjjJjjjJ%%
37200hJK%kl%JLKKJjjLMJjKLK%kk%J%J%klljJJ%KKJjk%%jjjjJJj%%j%j%%%%jJMLKJjjj%%%%JJj
37125G%%kjJj%jkjjljLJ%%jj%jJJj%JlkJ%KK%%LJ%%JLKjjJJjjJJ%KK%lkjlljJjJJKKK%k%%k%LJ
37050G%Jjlk%K%ll%JJKLjlljj%JKKjj%JKJkj%Jjkkl%KjjjJ%jlj%%JK%jj%%KKK%j%%%K%jJJkllj
36975a2%%%jjj%jkmj%j%KKKJJK%j%%kj%jjkjjj%JKLJJLLJKK%%JJJLJJJJKLML%j%KLJ%jmjjj%J%
36900A4JJ%%k%KMLJJjkk%kllllJ%JK%%JLJJJj%KJklkjjjjjjjjk%%jkkljJ%jljLJ%j%%%jJMMK%k
36826@JK%jJJ%%%%J%jlj%j%KJj%%%JJ%J%j%%jjkk%JjkjjJJ%kljKMKjjjlkjk%KKMMJKKJ%jlkJOL
36751HjjkjKJjllk%%J%JJlmj%%%%%jJJJJjJLM%kj%jj%JJ%j%LL%%JJ%Jjkk%jjkk%JJk%%LKjlJJ%
36676a%J%LKjkkkjk%LK%J%%JJjjlk%JJkj%Kjkk%JJKLJ%%%%kjj%Kj%jk%%%JKJ%j%J%jJKKjlJJ%%
36600@JjjmjKKjj%j%j%jlJKJ%%%jJ%%J%%KK%j%Jjkj%j%%jjkllk%J%JJJJKKJjk%%JjJJjk%KKJkj
36525a0KJ%kjj%JLKKKK%kjJJkJKK%jkk%J%JK%kk%jkjjkjj%MKJJJKJJJ%j%Jj%kj%j%jkj%KJ%%jk
36451f%MLKK%J%%%%JJJ%JkjKJjllkjkJLLJJKL%lljJJjjjJ%%%KK%lkkJJ%%LLKJ%%jkjJJKkkjklJ
36375D%%KJ%k%%KJkjJJ%JJjmljj%KJKKJjk%jkjjjj%%MJkkJLKJ%kl%jkj%%%kljjKLKKJ%Jkk%JJ%
36300bk%Jjlkkj%%ll%JJJJKLjjKJ%%jk%KKjjjljJ%KMJ%%%%%JLJjjjjLKJJJ%J%mmjjjJL%kkjj%%
36225ijJKJ%K%kj%%J%JJj%%j%%kk%JJKKL%%KLKjjljJ%jjKL%jjkj%%%KKjjj%J%j%KL%klkJMLjkk
36150Akj%%j%JJJ%jjJJjj%K%kjJjlljJJ%%KNKKK%j%%jklJJjkl%KJjjjJKJJKL%%j%lkJ%k%JJ%kk
36074e%%kjjJLLJJj%Jll%K%%j%kj%jjJKJJJjj%%jk%%k%LKJ%Jjmk%JKLKJMK%%%jjkkll%KjJ%k%%
35999hjJKKJKJK%jJJJKKKKJJkonj%jjJJ%JJJj%JKLKJJKknmjkJJKMK%jJjkj%Jkjll%%JLK%j%%Jk
35924Bj%kkJKKKJjklk%KKJjjj%jmm%K%jJjj%MMK%jJKLJjkljJJKJk%J%jj%MKjj%jj%%j%J%%k%%k
35849a%KKJ%%J%%%jjj%j%jJklk%%jjJJJj%%jk%%%%jJLKJj%j%jj%j%KK%lljKKj%%jjj%j%%jkK%l
35773a6kJJKJj%j%%jLN%%Kj%KJjkkKK%JKKJKj%j%JJKMMJkjj%J%%%jjJ%%KKJJklj%%%j%%lkj%JJ
35699EJjljJLJJ%%j%JKJkjj%KK%kJJ%jjjkkJJjj%jkkJ%JJKjjjj%k%LLJjk%jjJJ%%%kk%%J%jlkl
35624a1%%%JKK%jjlkJMKJJJj%jjK%jJ%k%KLJ%l%KJJ%%Jj%KLK%%%JJ%kKKlnjkljMLK%%JK%jj%k%
35550E%kkkl%J%j%%JkjLJjJ%%%jjjJKKKKj%%JJJjjJJJjlmlJKJKLJjjjkk%J%J%JKJJKK%JJjljjl
35474Clkl%LKKJ%J%KMJjljlmjJ%jJJjJLKjk%JjjJJJ%L%lj%jkl%JJ%J%jJK%JJJK%k%KK%jkklJJl
35399@kjjjJLLK%jJLJkm%KK%%%kmlJL%JMMLKJKJjllj%KJ%%%jkl%KJ%%%lkJKJ%JKJ%%j%%%%kjJK
35324A3K%j%J%ml%%jk%LJlj%%%kl%jjJKlmkjjj%Jkl%JKK%kk%j%JJJj%K%j%%%%J%%kKMK%J%j%LJ
35250a%j%Jjk%K%%%J%lkjJJKJJKJJJ%klkj%%LLJKKLjkk%%Jjll%JJJjkjjJJJ%kk%Jj%LLJKjlkKK
35174CKLjml%%kjj%jk%jJJJjJ%%JKJ%%%j%%%kk%MK%KJ%Jjk%KJJ%%%jmljKJjjjKJ%jk%J%%KjljJ
35099eJKL%JK%jjmjJJJKJ%klkkjj%JKJKJjk%%JJLJjjjnkJk%LKKKjk%%klJKKKJL%m%Kk%JJJJJ%k
35024BmkkjkkJMKJjk%J%%jjJ%k%Jjmm%KJ%JJJ%%j%Jj%%KM%k%%JKK%kk%KJ%JJ%klJMJJJjjMLjkk
34948Bmkj%JKJJL%lkjJKKklkJJjJMLjl%KLJ%jJJJ%jkk%%kjKKklmk%KKKJ%%jjjJKLKJJkk%LLKjl
34873Gj%j%%kk%L%j%%lmjjkj%KMLJjml%KKJ%%jJJjkj%KLJ%%JjkJK%JLJklkj%JK%KJklJJKKjkkl
34798blmmjJ%%JJJKK%%K%%%JKLL%kkk%j%jjj%%%JjJNLjjjj%KJ%jj%JKjlkjkj%kkkjJLJjjJJJkj
34723a0%%KKMKjjJ%J%kkJjljK%jKKjjjlkJKJjjKJLNK%Jjk%%jJjlljJ%llJLLJ%%LLKK%j%j%jk%%
34648Bj%%JLJKMLJjkkkkkjkjJJ%jkJML%kjj%JjkkkjJKLK%KJkljj%%lkJKLLLLKJ%ll%KLJ%kk%LJ
34573A4KKjkmkJJkk%J%lkKKkkk%JK%kjkjJLLLKj%%%j%Jkmm%LJ%JJ%jmlJLLJjKJ%JjjjJKKjkkjJ
34499EJk%J%jjljJjkJ%k%KJknljjJJKNKJKMNLjk%j%j%JjmJLLJjJLKjkmjJJ%lkj%J%kjKJ%%jkk%
34424AJ%kk%LJ%k%%%J%%J%kjKKKJj%%j%KK%kkJJ%jjMLJkjjKLLKjjKJjklljjkkj%jmk%jjj%KJ%j
34348e%%jjjjJLMKJJ%KLKkj%%lJJmnjJjJJJK%%%LNNJ%%Jjj%kj%JKJ%klk%K%j%MMKj%jjjjljJ%j
34273A0j%JKKJkkjj%JJKJJ%jjJjljJ%JJ%kJJj%JkmlkjjmkjjjkkJ%JLL%lljJjk%JJjl%%%k%JjjJ
34199a9KL%jKK%JLLL%jjkJ%jjjKML%%k%K%JLLL%lkkkllkJKL%KLJklkkjLMNNJkkkJKL%kn%J%lon
34125e%jjj%jJKKJJKJj%J%jlJKK%%jjkKLLJJ%lk%jJLJkljkjkkkkKL%jkkKJk%JJ%%JK%%JJKKJKJ
34049Fj%%lk%KKJKJjml%KKKJ%%jl%JKJ%jj%J%jlkK%%J%jjj%KjJLLJKJJK%%KJkljjmjJJKMMK%%J
33974B1jjJjlmnlJ%kkJKJ%%lnl%KKllkjjkl%KjkJJ%KMKJK%j%JLjkJMjjKKj%JJ%jj%L%lnkJK%JJ
33900a%jkk%J%jjj%KJk%JkkjkjKJkkjKLK%KMMNJk%KMMJk%Jjm%jkj%kkjJJ%%J%JJjjKK%%%%%jjj
33825EmkJLNKjkjjjklkKJ%JjnkJ%j%%%JLJklj%%%j%%%jk%JJKKj%L%%JJKK%Jjl%LKKjkKOOJkj%j
33749A4KL%lkJj%KMKjj%jkLKKKKK%mm%K%kk%JKj%KK%KKJk%%%jLKkkklKKjjJllJK%k%MN%lk%%kk
33675B2kkmlkkj%ljLJJJll%K%jj%%JJJJKJ%%jkllljjjj%MKJ%kkkj%%JJJjklljJJLKKJKK%j%JK%
33601Bjjkj%%jljLL%%%jKLKKKKJ%kmjLJkjJMJ%%%kmljjjjJ%%j%kj%JkjK%j%%%jk%%jJJKKLJJMM
33526Ij%L%jjjJKJ%klkJJkKLJj%%jJJkkjkkLMjkjJ%%jjkmlKNLJ%jJ%j%%k%KLLKJ%lkkkJKJkJLK
33450A3jklJKjkj%JKLKLKJKklj%JK%kkjkJ%kjlllk%%jjj%%j%j%%K%jjjlkJJ%%%%%kl%%lkjjkjK
33376b3LJLNJjkkl%JLMLKKJkkkJL%jJLLNML%jjjkk%%J%kjkjLK%J%k%JknljJJ%%kkljLNLll%Jj%
33302eKJllm%LMMKKKJ%JklKLK%k%LM%%J%%jlkJ%kjj%K%%%KJlkjllmll%Kj%MKJK%kKJk%%lm%%kk
33227a3kmkj%kjj%jjLKJjjJJKKJKML%%%j%KMLkJJl%K%k%KK%jK%Jjll%J%J%klJNNLJklmj%%%KLK
33152E%klmjJJj%LJkjKMJllkj%KJkkj%jjjJMLjlj%%JlkLM%%jnlKK%kjjJJjJJ%J%llJLJjjj%JJJ
33077a0JK%j%%JLKKKJjj%JJ%%%JKLLMM%llJJJK%jkkj%%K%mkKJM%mmkklj%%JKL%lk%J%KKJ%Jjj%
33003FkmjJKML%k%JJ%%%jkkKOM%JJKNLJ%K%jlkkjJK%jjj%%JJ%%%%KJknlJ%nmkkjl%%%JK%ljJK%
32928CjkJKK%jJKJjlkj%KLJKLjmnlkj%jjjkllkLJkk%%jmjMJnol%JlmKMJj%KLJkkJMKMMJjkjJKM
32852a1N%%JkkjJLKLNJjKJljKJ%kkJK%ljkj%JkljJNL%jjllnkk%%KJ%jlJMMM%kjKJ%%JKJkjj%JJ
32778aLMKll%JJjkJNL%mjKKKKKkllkLLkllljJ%kj%j%%j%%jj%KKLJjmjK%%LJljJLJkllkJKJ%%jJ
32703d%JJKKKk%jj%MM%lnkKJkj%kllkJKkk%%K%kkjJK%%%%jJMKJjkKOJmjLL%k%KLJlpkJ%JNMJ%%
32627Ej%KJjmlkKLJ%mmk%kkKLJ%%KMLkk%%%JMLKKJklJJ%kmjMKjl%%%%KK%lj%jJLL%jj%%%Jj%KK
32552A3jkjlljlnljKKjk%%%jjKKKJ%jjljLKJkljKLJmkJJ%%LMLK%lKKkJKJJjljKKL%jkljj%L%JK
32478H%%MJmn%KJ%KK%mk%KLJlmjJKL%J%%%kjKKKM%nkJ%jK%kjkj%jkj%Jjj%k%JKJJJJ%jJ%jjkk%
32403@%jkj%%KKJjj%j%J%%jJLjj%%ljKjk%%KK%%%kl%j%j%LKjJ%jKLjlJNML%llj%JLJJ%mljJLKj
32327Fkj%JK%jjJJLKjk%J%mjj%JklJKjjjJKkjLJj%%%jjjJ%lkjkJj%JJJJ%kjJlkJ%JL%jjJ%jkJ%
32252i%jj%KKJJ%JLJJLKjJJj%K%k%JKLKjjLJ%%%kkjJ%kmkJKJ%klkkk%%%JKjml%%klJJ%J%KK%kj
32177ikkk%KMMKjkKLLKJkjJJLMJ%KJlnljJ%%KJlkjjlkKJ%KPMKJ%%LMjn%MkmkkjKLJllJMJj%jJ%
32102A3%k%J%jj%K%lklkkKJkmk%JJKKK%kmk%JMLj%jkJNNLjm%LJJJJJ%%KKJjkjJJKKJJ%JK%JMKk
32027C3jjJ%jk%%J%%jJ%lm%KJ%Jk%MLklLJjJ%jjljKjlljKK%jJjkj%%kjKJkmmjKJlk%J%KKjjk%J
31953HjjK%JKJ%JJjkjJ%JKj%KKjjjll%JlkJ%k%jk%jk%KKKJlmmjLJkmkJOMjjjj%Jjj%LKK%jjjkl
31878gl%MMLL%kkjjkkk%j%%J%%JKK%JJJj%%KL%lkjj%JKjjKJkl%%j%JMKjlkJJ%jKMJjjKMK%jkjJ
31803Gj%KJKKjkkkkKKjk%KJ%jJ%jKLKJJJkj%%%JjjjkljjjkJKJkJJkk%Jkk%%%KJ%%KLK%klJJ%%L
31727IKK%j%jll%%%%KKJj%j%LM%ml%K%JJkkj%%L%nmkjkknljjml%J%%%JK%JK%%jk%JKLLKjllJKL
31652iKLJLLKKJ%jjJ%JjJKjmmjjk%JJJJKK%J%j%J%lkjkj%Jkk%MM%mKL%jkjjKJjk%LK%J%j%KLJj
31577Hj%JjkjKJ%%%kk%%jlkjKKJ%%%%jkKLjnlKK%lkk%JKL%kkkkjJLK%JjjJJMM%JL%l%JJKM%k%j
31502IljKK%J%klj%KKjlljLNMJ%jJ%%KKKJjjLMJjljjJ%kk%J%JJJkjJ%jKLJ%lml%kJJJJKJJ%%%J
31426B1%klm%%ljjjKJklkjj%jkjJ%kjj%%j%JJJJKknnjjKLKJK%%klJK%JJJLK%%%%%jljjkk%JLKk
31352fl%%JLKkljjjJ%%jk%KKLMKjlmkkJLjjLL%kkk%JKJKJKNN%kj%ll%%j%Kj%Jjmk%LNMjmj%jk%
31277cK%%%%%JJjj%jkml%%JMMJ%llk%%%KMNK%jJJKJ%jk%%K%kkJL%%%jml%JKjll%KJlkKJ%MMK%k
31202DlJJjjKNJjJJklJKK%JJ%%%J%JJklJLLLJKKJ%KKKJknkjJJJKLJ%K%lljKJlm%NKljj%JK%%JJ
31126C0JJ%%%jkjlj%Kjjlk%KKLKjjljJKMNJl%KjklkkjJKjljjkJMNKJLMNMKLMOM%jjj%lnljnnln
31052C3pmlj%LMJJKKKMNJ%%KL%J%%J%kkjJJLLL%mmlnnnnpqrpopnJJ4K6L3L4L3L1L1K7K0J2Npk3
30989B13l9n1n5m8l7k8k2j6qjLQJ2J6J6J5J4J7J7J1OMM%oj1j2j3j3j1j0pmmnlkjlmklkjjJKJJK
30938f0JJMLLKLMMJKMNJ%llj%JJJLK%Jj%jkk%%KK%lkljKKKJ%jJKJjJJJJKJ%j%J%lljK%KLLJ%J%
30864a0kjLKJ%JjkjJJJjkJ%JK%j%%kj%KKKKjlj%K%%%JjjJKJJJJJj%%%jjjkjJ%%JjkkJLK%jj%J%
30790c%jjlkJJJJJ%JjljKKJ%JJKL%j%%jjkjJK%l%J%%j%JJJJJ%KLK%%%%%jlkjllmJJj%LJj%J%%J
30714b%kk%jjJ%lkjKKK%jkmjLKjjJK%J%%%jlljJKK%jkk%LLMJkkJJKKjjkjKKJjkk%j%%%k%JKJjj
30639i%KKJjj%JLJjJJ%jll%LLLK%J%jkjLJjlkjLKJJjjJJJMJ%%j%JkmkKJJKJkj%JKJK%JMM%j%k%
30564A9KJk%%%JK%J%%%LLKJJjjj%j%k%%jkjkjj%jj%%klk%jj%%lkj%%kjkjj%%jJK%%%J%kljj%jJ
30490hJJj%JLK%jjJ%jJLK%jkj%JJjj%%jJJ%kjJJKJKK%mmkJJKJjlKKJJ%kkjk%%JjjkkkjKJJJKJJ
30414cKJ%%JKJjj%K%jLLjkj%k%%kKMKjj%JJk%jkkj%JJ%lnjKKLKjJLKJ%jj%%J%j%KJJ%%%K%kkk%
30339GKJ%j%Jj%KJ%%J%jjkjKK%%jkjjjJKL%JKJjJ%J%%%%j%Jj%J%kkj%%%jkjJJkjkkJKj%%%K%ll
30264AkjJMJ%JJkkKJjJJ%%%j%KKklj%kkj%%%Jj%%J%KMK%K%jkk%J%JKj%JLLLJJKLJjlk%LK%j%jj
30188B1jjjj%Jj%j%%J%ll%KjjJ%jjJ%jk%J%%kJ%kkjj%jkjKJjlkk%%KKjk%%KLJKLKJKKKK%%jljJ
30114A2JjJJkjjkkklj%%%jkJL%%KLjjKLKK%ljjJL%kj%JKKJJ%KKKJjlnlk%jj%JLM%%%jj%j%jljj
30040FkJJKJJkkJJjk%%Jjj%j%kjJjk%Jj%%kJKJJ%j%K%%JLLMLkjj%%JMMJJJJKLJJJJjKPQNLMLKJ
29965F8%JJMMK%%%kkj%jlmlonjjkklkmnpnllkmlllkkkk%jKLJjkkKLMJkjJ%%jjjkml%%KJLKJ%JJ
29890aj%%Jj%jjJKjjJKJ%JKJJ%JJKJJjjjJ%j%JjljjJkkj%k%jjj%KL%kjjjlkjJKKJMMLKKjjJ%KK
29815A3%jj%JJ%klj%J%JJ%%jJ%JJJJ%jj%jjkjjjjJ%%%%JJJJ%j%%JKK%j%kkJ%mlkkkjJJKLLKj%j
29741EkJ%%jk%%%J%%%J%LLKkkjKKJ%jJklj%KJJ%%JKL%Jjj%J%kjjklj%%j%J%%%%JJ%%kj%jJJJ%j
29666EJMK%%jjlkjkjJJjkj%JJ%%jjj%JJ%jj%KLJkJJ%%J%%J%%LKKjkkkjJjjjj%%j%%jlllkJJ%JJ
29590gLKJ%KJJ%jJKKKKJjj%kkjJ%jJJJK%%KJ%KJ%jlkjjj%Jj%JJ%JJ%%J%JJ%%j%j%%%j%%j%JJ%j
29515A1%jj%jj%j%%kj%jj%%jj%jj%J%%J%JJ%kjj%JJ%%jjkJJLK%jkjjJJJjj%%J%jjjj%JJJjJ%jj
29441dJ%Jj%JJJjj%%jj%%JJJ%JJ%%%%%%%JJj%Jjj%J%%j%jjjjj%%jjKJJJjj%j%jjK%%%%%Jjjkj%
29366hJJKJJJ%%J%%%%%%jj%Jj%%JJ%jjj%j%%%KKJJ%%jJKK%jJJ%%%%%JJJJ%j%kj%%%%%kkkkjjkk
29290gJJ%%%%J%jJjklkjjj%%JKJ%J%JKK%%%kjJJ%j%%JJJJJJKJ%J%J%j%%JJKKJ%%%kjJ%%%Jjjjl
29215CkjkkJJJJJjJ%%j%Jjjj%%%J%%%%JJ%jkk%%JJJ%jj%j%%%j%%j%j%KKJ%JJJjjjK%jjJJ%%J%j
29140@jj%%j%jJJJJJ%%jkj%JKJJ%%kkjJJJJKJjkjjj%JJ%jJ%KJ%JJJ%%jjj%%jJJj%%%%KJJjj%j%
29065DJ%kjj%jj%%JKJJ%%%J%jj%jj%%%%%j%%%%jjJ%%J%jJJ%J%j%j%%jJ%Jj%k%%J%%kj%%JJJ%%j
28989bjk%J%%j%%%%JJJKJ%Jj%jJJJj%JK%j%%jj%%%jjj%j%%jjjJ%j%J%%%%%j%%J%JJJ%j%j%J%JK
28914A%jJJJjj%JJK%j%%%J%%JJj%%%k%%%%J%jk%%JJ%jj%%%jj%jj%%%jjjk%jJj%KKLLKKKKJKL%%
28839A6%klkkjj%%%kjk%J%jK%jjj%%KJJj%%%%%jj%j%J%%Jj%jjk%JJJ%%%%%%%%j%%%%%%%jj%%J%
28765c%%%J%k%%%%J%JJ%%j%%%J%JJjj%J%J%J%J%%jj%jJ%%jJ%j%%JJJJ%%jj%J%%J%jJJ%%%%J%%%
28689F%j%%%%jjj%J%%%J%%j%j%jJJ%j%%%%J%%%%%%JJ%J%%jjk%kj%j%KKKJJJj%%J%J%jJJJjjjkj
28614Dj%%%%%%jjj%%%jj%%%jJj%J%%%jjJj%%%%j%J%JJ%j%j%j%j%%j%%%%%j%J%J%%J%%J%%J%%%%
28539c%JJ%JJJ%%%j%%%%%J%%%%jjjJ%j%%%%%%%%%%j%%%%jJ%%%%J%%%%%%%%J%%J%%%%JJ%j%J%%J
28463DJj%j%j%%%%%%%jj%J%%%j%%%%%%%%%%J%J%j%j%%%%%%J%%%j%%%J%J%%%%JJ%%%%%%%%%%%%%
28388D%%%%%%%j%%%j%J%J%j%%jj%J%%%%j%%%jjJ%jj%%JJj%%%%%jjJ%j%%%J%%%%%%%%%%J%%%%%%
28313a%%%%%%%J%j%%%Jj%%%j%jJ%%%%J%J%%%%Jjj%J%%%J%%%%%%%%%%%JJJ%%%%%JJJ%%jj%j%j%%
28238C%j%%%%%%jJ%%%%%%%%%%J%j%%j%%jj%%JjjjJ%Jj%%j%%%%%J%%%%%%%%%%%%j%%%jJ%%J%%%J
28162aj%%%%%%J%%j%J%%%%%%%%Jj%J%%j%%%j%j%J%J%%%j%%JjJ%%%%%%%%%%%%J%%%%J%j%%%%%%%
28087@%%%jJ%%%%%%jj%%%J%%j%%%%%jJ%J%%%%%%%%%J%jj%%%%%%%%%J%%%J%%%j%%%J%%%J%%%%%j
28012@J%%%j%%j%J%%%%%j%%%%%j%j%%Jj%j%%%%%j%J%%%%%J%%%JJ%%%jJ%%%%%J%J%%%%%%%%%%%%
27937A%%%%j%%jJjj%%%%%J%J%%%%j%j%JJj%jj%%%J%%j%J%%%%%%%%%jJ%%%%%%%%%%%j%%%%%J%%%
27861b%%%%J%%%J%%J%j%%%%J%j%%%%%%%j%%%%J%%%j%%%%%%J%j%%%j%J%%%%%%%%J%%%%%%j%%%%%
27786a%%J%%J%%J%%%%%J%j%%J%%%%J%%j%%%J%%j%%%%j%%%%%%%%%j%%%%%j%%%%%%j%%j%%%%%%%%
27711b%%%%%j%%%%%%%%%%%%Jj%J%%J%%%%%%%%%J%%%j%%%%%%%%%%%%%%%%%%%%%%%%%%%%%%%%%j%
27636bJ%J%%%%J%%J%%%%%J%%%%%J%%%%j%%%%%%%%j%%j%%%%%J%%%%j%%%%%%%%%%%%%%%j%%%%%%%
27560@j%%%%%%%%%j%%%%J%%%%%%%%%%%%%%%%%%%J%%%%j%%%%%%%%%J%%%%%%%%%J%%j%%%%J%%%%%
27485A%%%%%%%%%%%%%%%%%%%%%%%%%j%%%%%%%%%%%%%j%%%%%Jj%%%%%%%%%J%%%%J%%%%%%J%%%%J
27410C%%%J%%%%%J%%%%%%%%%%J%%%%J%%%%%%%%%%j%J%%%%%%%%%%%%%%%%j%%%%%%j%%J%%%%%%J%
27334G%%%%J%%%J%%%%%J%%J%J%%%%%%J%j%%j%%%%j%j%jjj%jjjj%jjjj%%J%%jjj%JKJJ%J%%J%JJ
27259E%%%J%%%%%%%j%%%%j%%j%%%%j%%%j%%%%%j%%%%%%%j%%%%%%%%%%%%%%%%%%%%%J%%J%%%J%%
27184B%J%%%J%%J%J%%%%J%%%%J%%J%%%%%%%J%%%J%%%%%%%J%%%%%J%%%%J%%%%%J%%%%%%%J%%%%j
27109A5%%%j%%j%jj%j%j%j%j%j%j%%j%%j%j%%j%%%j%%%j%%%%%j%%%%%%%%%%%%%%%%%%%%%J%%%%
27034a%%J%%%%%%%%%%%J%%%%%J%%%J%%%%%%%%%%j%j%j%j%%j%%j%%j%%%j%%%%j%%%%%%%%%J%%%%
26959e%%%JJJj%j%%%JJ%J%%%j%%%%%%j%%JJ%J%%j%%J%%%%j%%%%J%%%%%j%j%%j%%%%j%%%%%j%%%
26884e%j%%%%%%%%j%%%%%%%%%%%%%%%%%%%%j%%%%%%%%%%%%%%%%%j%%%%%%j%%%%j%%%j%%j%%%j%
26809a4%j%j%%j%%%j%%j%%%j%%%%%%%%%%%%%%%%%%%%%%%%%%%%%%%%%%J%J%j%jjj%jjj%j%j%j%j
26734b9%j%%%%j%%%%%%%%%%%%%%%%%%%%J%%%%%%%%%%%J%%%%J%%J%%J%JJ%JJ%JJJJJJKJKJKKKKL
26660ALKLLKLLKLKKJK%%jjllnopj0j1j3j5j6j6j7j7j9j8j8j3j0lQK1L1L8L9M0L8L5L2K9K6K3K0
26610A90J7J6J3J1RPNKkloqj0j1j2j2j3j3j2j2j1j0rrppnnnmllllkkklkkkjkkkjkkjjkjkjjjkj
26551C2jjjjjjjj%jjj%jj%jj%jj%j%j%%%%%%%%%%%%%%%%%%j%%%%j%%%%%%%jj%jj%%j%%%%j%%%%
26477E%j%%%%%%%%%%%%%%%%%%%%%%%%%%j%%%%%%%%%%%%%%%%%%%%%%%%j%%%%%%%%%%%%j%%%%%J%
26402B%%%%%%%%%%%%%%%%%%%%%%%%%%J%%%%%J%%%%%%%%%%%%%%%%%J%J%%%%%j%j%%j%J%%J%J%%%
26327Fj%jj%%jJ%JJJJ%%JJ%JJ%%j%j%%JJ%j%jj%%%%%%%j%%j%%j%%%%j%%%%j%%%%%%j%%%%J%j%%
26251B%%%%%%%%%%j%%J%J%%%%%%%j%%%%%%j%%%%%%j%%%%%%%%%%%%%%%%J%%%%%%%%%%%%%%%%%%%
26176A%%%j%%%%%%j%%%%%%%%j%%%%%%%%J%%%%%%%%%%%%%%%%%%%%%%%%J%%%%%%%%%%%%%%%%%%%%
26101@%%j%%%%%%%%%%%%%%%%%%%%%%%%%%%%%J%%%%%%%%%%%%%%%%j%%%%%%%%%%%J%%%%%%%%%%%%
26025@%%%%%%%%%%j%%%%%%j%%%%%%%%%%j%%%J%j%jjjjj%%%KJKKJj%jjj%jjj%%j%%%%%%%%%%J%%
25950gJ%%J%%%%%%%J%%%%%%%j%%%%%%%J%%%%J%%%%%%%%%%%%%%%%J%%%%%%%%%%%%%%%%%%%%%%%%
25875b%%J%%%%%J%%%%%%%%%%%%%J%%%%%%%%%%%%%%%%%%J%%%%%j%%%%%%%j%J%%%%%%%%J%%%%%%%
25800B%%%%%%%%%j%%%%%%%%%j%J%%%jJ%%J%%%%%%j%%%%j%%%%%%%%%%%j%%%%%%%%j%%%%J%%%%%%
25724a%%%%%%%%%%%J%%%J%%%%%%%%J%%%jJ%%%%%%%%%%%%%j%j%%%%%%j%%%%%%%%%%%%J%%%J%%%%
25649A%%%%J%%%%J%%j%Jj%%%%%J%%%%%%j%%j%%j%%%%j%%%jJ%j%%%%j%%j%%%J%%%J%%%%%%%%%%%
25574b%%%J%%%%%%%%%%%%%%%%%%JJJ%%%j%j%%%j%%j%%%%%%%%%%j%J%%%J%%%%%%J%%jJ%%%J%%%%
25499AJjJ%%%%%j%%%J%j%j%J%j%J%%%%%Jj%%J%%%%%%%%%%%j%%J%%%%%%%%%%%j%%%%j%%%%%%%%%
25423@%%%%j%J%J%jJ%%J%j%J%%%%%%%%%%%%%%%%%%j%jJ%j%%%%%%%%%%%%%%%jJ%%j%J%j%%%%j%%
25348b%J%J%%%%j%j%%%%j%jJ%%J%Jj%%J%J%%%%%%%%%%%J%%%%%%%%J%%%%jj%%%J%j%%%%%j%%%%%
25273a%%%J%%%%j%J%%%%%%%jj%%%J%%%%%%%J%j%%%J%%%%%%JJj%j%%%%%%j%%%%j%%%%jJ%%%%%%%
25198bj%%%J%j%%%%J%%J%%%JjJ%j%%%%%%%%JJ%%%j%J%J%%%%%j%%%%%%J%%%J%j%%%%%%%%%%j%%J
25122B%j%J%%%%%%%%%%%j%%J%j%%%jJ%%%j%%%%jJ%%%%%%%%J%%%%j%%%%%%%%J%j%%%%%%j%%%j%j
25047c%%%J%j%%%j%%J%%%%%%%%%%JJK%%J%%%%%%%%%J%%%j%%j%%j%j%J%%%jJ%%%%j%%JJ%%%J%J%
24972C%%%j%%%%%%J%j%jk%J%%%jj%%JJj%%%J%%%%j%%%%J%j%%%%%%%%j%%%%J%J%%%k%j%J%%%%%J
24897aJJ%%j%J%%%%j%JJjj%%%%j%jJJ%%j%%k%JJ%J%%%j%Jjj%%%Jj%%J%JJ%%%%%j%%%%%%%jj%%J
24821aJj%%%JJ%Jj%%jj%%J%JJjjj%Jj%%%%JJ%%Jj%j%%%%J%j%J%%%%%%J%%%%j%%%%%j%j%%jJJ%J
24746A%J%%jj%%%%%J%J%%%%%%%k%%J%j%%jj%%%%%J%%%%kj%%J%J%%JJ%j%j%JJ%%JJJ%%%%jj%j%%
24671@%%JJJJ%%jj%Jj%j%J%j%%jjjjjJJjj%jLN%mkkkjJ%%jkkj%%%%%%JJ%%JKJ%JJJJ%%%%%%JJ%
24595a%j%J%jJ%%J%%KJ%%Jjjjjjj%%jj%%J%%j%%JKJ%%%%%J%J%%K%jj%J%%%j%%j%%J%%%j%%K%j%
24520BJJ%jJ%jj%%%%JJ%J%j%j%%%%jjK%%%%%jj%j%J%%%J%%J%J%j%%%%%%%JJ%%%%%JJjjj%%J%J%
24445F%J%JJ%%%jJ%%J%J%%j%KJ%Jj%JJ%J%JJ%jklkkkk%%%j%%%JJjjJ%KKJJkmlk%%JJj%J%%%%%J
24370B%%J%J%%jjj%J%%%j%J%%JJ%%%%J%jj%j%%jjjjjjjkjJJJJ%jjk%%%%jJJJJJ%%%j%JJjJJ%%J
24294aJ%%j%j%jk%JJ%j%%JJjk%%JJjk%KJ%%j%JJ%%%%J%jj%j%JJKKjjj%jjJ%j%jk%jJJJKJJJ%%%
24219A%jJJJJ%jkl%%JJ%kj%j%%jj%%%JJJKKK%J%%kjkj%%J%jJ%%kkk%%%%%jj%%%%jJJJJK%%%%%J
24144c%%j%J%jj%%JKKJ%JKJjJ%J%J%JjkjjJKJJJ%%%%JjllkjJJjj%jjJJ%%%J%klJJ%%%%jjjj%%J
24069eJ%%JJ%%%%%jjjjjk%J%jjjj%%%j%%KLK%KLJjjKjjJ%%KJ%jjj%%jjjk%JjkjJ%KJ%%%Jj%J%%
23993d%j%jjjjkjklj%JJKJjkJJ%J%%%%%JJ%jjj%j%j%KJJKKKK%J%KJLJ%J%%j%Jkjj%%%kkjkkj%k
23918a1k%JJj%%K%kjJ%%j%jkj%%KJ%kJKJ%jjkkj%JKJJJJJJ%J%%LJ%JJ%K%%JJ%jJJJJJ%J%jjJJK
23844H%%%%kj%%jkj%%JJj%%jj%JJjjjjjjJ%jJJ%jjjk%j%%%LKJ%lkJKJLKKJj%jjjlmmj%%KJ%%K%
23769fkjj%%K%%JKJJKJ%Jj%JJ%jjKKjkjJj%KJJKJ%jj%%j%%JKK%j%%jJ%jjj%JKKKJK%j%%%%j%J%
23693A4j%JJkjJ%kjkk%J%jJ%%kkJKLJjkkkjj%jjj%KKLKJJJK%jj%j%%%JKJJ%JJjkljjkjjjjJKK%
23619G%j%J%%%%kJ%jk%%K%JJJ%K%J%%jkjkjkjkk%J%j%jkk%jJKKJKKKKjkJJ%j%jJJJ%%JJjJKKLJ
23544A5jkjkj%JJJKjkjjkk%%%jjj%%j%JLKKJ%j%J%kljJ%KJjjJjjJ%j%jjJjjjklkjkkJJ%JJjj%K
23470hKLK%j%KJJLJJJjJJJJ%jj%%Jjjkjj%%%%jkkJKJj%KJjkjJJJJL%%jjj%jlkkljJKJ%k%%jjJK
23394dJLK%%JKKKKJjkkk%KJJ%jkjJ%j%J%kJJJ%j%JjkkjkjJJJK%k%jJ%jlk%lnljjjKLKJJKLMNMM
23319A2LKj%koqqolJNOOLLMMLLMMKLMMMMNL%JKKKK%jjKJ%%jkljjkkkmlllmlkjjlmlkmmkjjkljj
23245ak%KjJJ%jkJLKK%%%jjj%jjjj%Jj%J%%jjKKJ%%JJ%jjKK%j%j%jjk%jjKLLJ%KJ%jlkJK%Jjjj
23169EKJJ%jlkj%J%jjj%KJj%%JJKKKJKKjllkjkjjjjjjj%jjKKkkJJMKJklk%%J%kkjKKjkjJj%kkj
23094a3jjj%%%KJ%jkkKL%%KKK%ljjj%KKJLK%JLKJJj%%JJJjj%%Jjj%LKj%K%kmjKjlljJJ%%%%K%k
23020al%KKJ%%%%JJjjkjjjkjj%LM%kljJK%%JJk%JJK%%JJJKLjlkJjkKMjjJKKK%jkj%%jKKJJ%kjJ
22945A0jjJLLJj%jkKJkl%%jjlkkllJJ%jKJJ%jJ%jjJ%j%J%jj%jJKJ%j%%%%j%%jjj%JJjjk%jjJJJ
22870fKK%JJ%mljKK%KKjk%%KLJ%%%%j%J%%%jk%JJ%KK%kkkjJJ%jkjjj%jkj%KJJKK%kkj%KK%%JLK
22795DKJjjK%JJjlKMJjj%Jjjj%J%kk%j%KJKJ%k%JJjjJ%kkJKJ%KK%%%kmkJ%MK%jjJJjjjkjLMKjk
22720A2kjjk%%%JKK%kkj%%JJJklj%%JKJJLKJJKKjj%%J%jkkkjJKJmmk%Jkkj%KJkj%JJKkkklJMLk
22646AJKknmj%J%jk%LJ%J%%KJJ%JMJkkJ%K%jkkj%KLJ%LKjjJjlk%%%kkk%%kkJJjjkjKKJ%%%K%k%
22570fK%k%JKKJjmkkjj%Jjl%KKJ%%MM%%jk%Jj%jjJ%J%%kj%JjJLLK%%%%jJJj%%j%j%%jk%%jjJ%J
22495c%kjJK%j%KLJjj%jjJLJ%JJJMLj%LKJJJ%lm%JJLKJKMJll%LKjkjJ%jj%jkj%JJjlnjKjjKKjJ
22420A4MK%KOLjlmll%K%jk%JK%jkjLKllkkJ%kl%kJLLKjlk%kJJKKJ%%JJkllljJKjk%%kjJJJ%j%K
22346Cj%%kj%jllkKKJjj%%%loommmmj%kj%J%klljjmllllmnlkorol%J0K2L0L2L1L2L5L5K1Jk2m0
22282H2m8m9m1k9j8pl%KQJ5J8K0K1K4K3K4K5K0J0ok0k4k2j2lMMLL%%KNNK%%KLMMPPOMJknmmkll
22227E3lmnjJjmk%KL%%lmjJkmknonl%KLNJ1J3J3J2Pjj0j7j3qlj%%lnlkmjK%kkkkj%LKJKKJjljK
22160ALJ%%J%jjk%KJjjkml%jjjJJJjjKKJJj%KMKJJkl%J%LJ%%jlkkjJJ%jJ%jJKKJKJLK%j%JJ%kl
22084Ik%%j%jJJ%kk%%jkjjk%%klnlKJjjj%jj%LK%KK%kkjJLL%jKLJll%KKJKKJjkj%kkJJJjjjJjk
22009i%Kjklk%kk%J%j%MJl%LL%jjkk%K%k%%%KJklk%JKLLJknlKJ%JLJKK%%KLJj%JKKkmk%J%KJ%J
21934bJK%ml%%k%KK%Jjkmkk%KK%jlkkJ%%jkJK%JKJ%JJjmllkJMLJKJ%%JjllKMLJklljLL%j%jJj%
21858a3Kj%JLLKjkklml%LMLjjKJKLjk%%j%MNMKJjJjjJK%%kkJLLjkjj%jjJK%ljJMMKKjljJjjjJJ
21784A4jk%LKJjllJJljJ%kkJJ%%JJK%j%JJJ%lkJK%jj%J%kmjJJl%Jkklljj%JjJKk%KK%jkjKJKMJ
21710Blnl%%j%%JJJ%Ljl%LKJ%k%KMJ%%jkkkJJj%J%Jj%J%j%Jjmk%%kJJ%J%JJKJ%kkllkkj%JMJlk
21635a6%%KK%%%%j%JKKLJ%JLJ%k%%LL%ljJ%%j%kkl%jk%jJJ%j%jkJKJKJjjj%jjKK%%LL%k%JjJJj
21560ajJ%%JkmkJ%jJKJJjlkLNJll%JJJJ%KLK%llMLkmJKJj%KKjjk%MKJ%kkkk%LKjlkkl%KMMJjjj
21485DljJLLkm%Jjk%%jlkKNJ%%ll%K%%%Jj%K%j%LLJKLKK%jkj%%jjJ%jJ%ml%J%%J%jjLL%llj%JL
21410EJkljjjjlkJ%kjLKjjjkjJ%jkKJ%JKKLKjjjjJjJMJjk%%jml%KMLj%J%lmk%j%kllJK%j%lomJ
21335b8JjJJ%%kmjK%j%LPKjJL%jjjjLMJjkjjj%LJjJJLKJ%JKKLKKJj%KJj%LNK%j%%k%JK%J%J%JJ
21260B0KjljjjlkJLJJJjl%KjljJKKj%JKJJj%Jjj%KLLJjKL%k%jmkJ%ljJLMNKKL%nk%%JJ%kljK%%
21186B9Jlmlmj%j%%j%%%j%JLL%kkkkjj%JMKJKLJkkjj%%kJJJK%j%KJLKjll%J%KKklmkjmn%jl%K%
21112BJ%kkJKkmlkk%j%J%%J%jJJjkmmkKKKLJ%JJ%jJLLlk%%%JJJ%J%%JJ%K%k%KkkJJ%kl%LMKmm%
21037gJkkLNKjJJ%%K%kjMK%lkJjm%MNNLjlkJJkmkjJ%%K%kMO%lmlJKKlnljJKKjjnoJLjllk%JKJj
20961a5%KJjkjjkjkjJLJjjjjKOKmmjMLJ%j%KKKkkJMKKJ%%jj%J%%%MLknmJMKjjjJ%jjLMLjklk%J
20887aJjjJKJJJ%jjkl%KJ%jk%KKKKlk%klkJJ%LLLJj%jl%L%KLJjJJ%%j%%%JNMLJJJJJ%kkJJjjKJ
20812B6MOJ%JJklkMLjkjkln%LK%kk%kkLKJKkkj%JJlkjljJJKjomjjjJLK%lkkkj%%jjkkjknjJJLK
20738e%jk%JJLL%JNKk%JjlkjjJ%klk%%jjJKLJjjKKKjkLM%kj%jmn%JK%klJJjKK%KJjk%klkJMLJ%
20662bJ%JJLK%%jk%knlJMM%onlj%%%K%mnllkkkjjkmlmpmk%%KJ%jjJLJjlKLMMKKLKjJKKKKjLLJ%
20587b2jJ%kj%KLKJ%LLjl%KJJJLLj%KKJMK%kjJJ%LLJKjlk%JKJJKKLLJkll%%jlonjKJJj%KJjj%J
20513E%kjKLJkmkMMLKJkjJ%%jj%%%JK%jkJKKKJ%%kjMLK%kkk%lonj%J%%%kk%jmlml%JKMLLJljKJ
20438bjkk%jkkJJK%%JJJ%JLL%%%K%llJLJ%JK%lkKKJJ%%jljJjk%JKJLKjklml%%%jj%J%%%JJkjkk
20362a0%LKjl%LJj%LNMKJ%kj%KMM%klk%jkjjkjjll%KLJJJjmjKKLMkllmkMNKL%mlj%J%J%JJ%j%J
20288CjKKkpolJKKMKjJ%jjlkJJJjj%KJ%kjKJKK%JJj%L%ljJ%KKJ%KKKkljJjj%%JjkljLL%%kk%%K
20213CJJ%jJMKkmk%jkjJ%ml%JKM%mk%%jj%%jj%jk%%j%J%%Jj%J%JkmmJOOKJklJNJJ%LLJm%KJjkk
20138ajlljJJ%JK%%KKJlkJJJLKklkkkJJ%j%jjjl%K%%%%jKJ%%%%jjlJKkjkjjk%KJjJkk%JkmkK%m
20062b9kLJJKKJ%JKLLMLjpolJLJj%%JJ%JKKKjmkJj%%%jkk%JMK%KKJ%JjklkjKLKljMM%klk%j%K%
19988a2%LLJK%lj%JLKJMJnm%%jk%NLjjkJKkl%KLK%kjJjkkj%JKJ%JKJ%kjK%%jjKLjlkjJMK%kljk
19914djLK%J%JLK%K%jlkJ%j%%jJKJlljjjJkmk%%jkJOLkkjJ%llkk%KLMJJKjljkjll%KJKLKKjmlk
19838a6jJLKLLK%kj%JkjJLJkljKNLJLKKJkl%%l%K%lmkJj%%jKKJJJll%%%jkmmmjJJJ%lkJJNNJk%
19764a2jj%ll%JkJNLJK%kLPLjlnnkJKLKKKJk%%j%KJKK%jJKknkJ%kkJNML%mljj%%jJLKJmnjJKMK
19690Bjj%jkjjjjkjjKKJJML%j%KNMjkjJ%%kj%J%KJjkKMJjjjjkj%J%%jmk%%JJ%LMKK%jmmnk%JJK
19615BLJkj%%JLjkkjkll%JJKLJ%knkJKJ%JKKJ%k%JJ%%%J%KKKJJJJjmlk%jlmJKJ%jj%J%jj%JKjj
19539cLLJ%K%%JKLL%lk%j%jkkj%JLJ%K%jJ%KLKKLkkmlj%jk%%kmmjJJ%l%Kjkkj%%LLJJJJJlnJK%
19464cjmkKkkM%mjJ%kmlJML%j%k%JjKLJ%%KLKJ%kjJLMK%JKJjklkJJjk%LJkjJKMKlkJJkkKOJmjK
19389IJjJJkjjkkJ%jkl%L%jkJLKJKMkpkJLK%jkmk%%%jljJjJ%KjllkLLJjJjkjkjKJJJjjJkjJJJK
19314h%KLKJJJ%KLLNNJ%JON%j%%kJJ%%%j%%J%%%jJJmk%kjKjmmJJ%JKL%jJkmklnk%%%KJkmjK%%k
19238Cl%K%lkJ%%%%jlkkJLKkkKJkjjkj%KKKJkkJKJJ%k%JKLLJJKJkkkk%lkJ%JKJ%Jkj%LLJkkj%j
19163aJJJjjjJK%j%%jJKKJ%%lnmj%%jjjJMJ%KK%%jjJJJjKKJKLJJKLK%kj%%%%klj%lkjJ%KLLLL%
19088A9kmlk%JJ%llkJjkjJ%kk%jkjjJjjjkml%L%%J%j%JjkJj%%JK%%%Jjj%j%JJ%KKk%%JJLLL%%%
19014c%kJLJlk%JJK%j%%%JLKJ%%%JjJJklkk%Jk%LK%%mkjkjKOLJjjj%MKKjkkJJJ%j%jj%Jj%jkjj
18938aJKjljJLJ%%Jj%Jjj%kl%%%JJLKj%%jj%%%kj%%%K%%kjJJJJ%jjJ%jjJK%%jkk%KJ%J%JJjJJK
18863DJlkJjjlmkKNMJ%KJk%%KLJklk%j%%kjjjKMJj%Jjk%J%kkk%%%KK%kj%%%%jj%KKNNKllklmk%
18788g%J%K%kl%jj%%%JKjjJKJ%%jll%JJjJMLJk%JJJ%mlJLK%%jj%%jljjJKJLLLLLKJkjkjj%j%LK
18713Hjj%J%j%JJkkKKkkj%KKllJLMK%jkk%k%%JJkm%%%kj%KJjj%JJ%%%k%KKJjk%KJ%%Kjk%JJKKK
18637A0KJ%jljJJklmmkkjjj%JLKJJKMJkkjjJKJkkkjkkj%jJ%%%KjmnJLKlk%J%LLLJkj%k%Kjk%JJ
18563ijJK%%%j%JKJklk%KJjj%kJJjJjmljJKKJj%KLK%jLKjJ%k%JJLJ%JjjJklj%JK%KL%mmJK%jk%
18488eJjllJNMJJJJLKLL%kjjJkm%%JjkljJNM%jJ%jjkkj%Jjk%j%%%j%KLL%m%JJJJ%jk%jlJJ%%JJ
18413CK%jlkKLJjl%%%KJjkkmkjkJLL%jjjJKJljKJ%%%K%JJ%lk%%jKKJKJjljK%kllkJJj%JJ%J%kj
18337iKJJ%%j%kJJj%%%jJKMJjk%KJKKjkkjJLMJkkj%KjnkLKJJKJj%%K%%j%%%%KJ%J%j%jlk%jkjj
18262b%jk%KKJJ%%Jjkj%%LK%jj%%KJj%kjjjj%J%%L%jjjjjJLJkkKKjklkJKjj%%kjK%j%KK%%jJJK
18187aMKjj%Jjm%jj%JKMJm%%%KKJk%%%%KK%jlmjjlk%jjJLJ%KKJ%KLJ%klk%%JKJJK%%JkmkjJML%
18111Gjjjk%%kmjJjjj%jl%KJJKJ%JJ%j%JLKk%jkjJ%kjjjkl%%m%JJ%KJKLJ%%JLKJ%K%%JL%kkkmj
18036c%Jjj%LKM%jJLK%kjjlk%jjj%KKJ%j%%jjJ%Jjk%%%KKK%kkjj%%kjkl%JK%%%JJ%klj%JJJJJk
17961gklkJJ%JLJ%j%%JJ%JKKJ%%J%jkjJ%jJJ%KJJJ%%J%%k%J%%J%jJJ%%Jjj%JJ%%JKKLJkk%jJJj
17886A2kl%Jj%jkj%j%K%kj%%jjjkkj%KMJkj%%%J%%%%JKknl%JJJJJK%%%J%k%%%%%JJ%KKJ%KJJjj
17811FjkkK%jjJJ%%%jj%JK%jkJ%jJ%J%JKknmkLMJjjj%k%%KJKLKKKJjj%kj%kkll%KKL%%%J%j%KJ
17736F%%k%jLMjm%jjj%%J%JJjjjjk%J%%LJ%JJKKlkjjj%%%lkNMjkkJ%JKjljJ%j%%%J%%j%JJJj%%
17661BjkkjJJJ%j%JjjJJk%%k%KLJjjkjj%jKK%j%jj%J%lkKJJjkJKJJ%%K%k%%%%%JJjjJJ%jKK%kj
17586ajjKKJJJj%JjjJ%JJ%JjjJ%JJjkkl%J%%%jkJ%%jk%JJ%L%jJKj%Jj%%j%kjJKJ%Kjj%KJ%jmkk
17510elj%kkKKjkjjJJjJKJjkkjjKK%jj%%J%%JKjj%klJLKJKJj%%KJ%kjK%j%JLJJK%jlmjj%JK%%K
17435dKJklkjJKjjJK%jJJKKJ%%jkjJJ%%%%%JkjKJ%J%kkJKKjjj%j%j%JJ%JJjkjJM%kjJ%jKK%jJK
17360E%j%jjk%jJJkkJK%jkJML%JJjj%j%%kjJ%jjjjkkKKL%JKKK%%%%jkjkjKKjk%KKjk%%%JJkj%%
17285BJjk%jjJ%jj%%LM%kjJJJJ%jJkj%Jkj%JjkkJJ%%J%%%JjkJ%kjklk%%Jj%%K%jkkJLKKLJkkjl
17209a1jJ%kkJ%JKKJKLJ%jkj%JJ%k%j%JKJJ%%%%JJ%J%kj%Kjkkj%jlljKK%%KKjjjj%kkKJ%J%%%%
17135a0J%k%JKJJjjj%%JKKL%k%%%JJJ%k%JJJ%jjjjLK%%j%%kJJk%%jKJjkjJ%%KKjjjlJL%Jjk%Jk
17061cljjjkkjKK%JJJkmmlJLLJjjJK%kJJJ%kj%%Jkk%KJjkj%j%KMLjKKj%Jjkj%jk%LML%lj%k%Kj
16986h%KJj%%%lk%%JJkkJJjlj%%%JjjKLLJkl%JjjJML%jjjjjj%jjjKMK%%J%j%%j%K%j%LL%jj%JJ
16910a%KKJJ%k%KJJKKklj%j%Jjlkjjjj%j%JKKjJ%%JJ%jjjJKLjlKLJJjlkjjJJ%JJjkkJJJJjJLLJ
16835I%jklj%llj%%jj%KMKJKLjkJKJ%kl%jjJjk%KL%jJ%j%%KMKmljjJKLKjkjJJkkjjLL%jjkj%JJ
16760Ejll%J%JKK%%%jj%LMjkjJ%j%jk%KJK%JKJkmk%jj%KJJJJ%%kj%j%%%kjjjjkjJj%JJ%JJJ%%%
16684a%j%jjjj%jkj%jJJ%%KJJklj%%kJK%J%j%LLMLJKK%kjJkkjj%LK%llJLL%jj%jk%jJJ%JK%j%k
16609Bl%JJjmlJM%j%%%jJJK%%%%KJJJJkl%KK%jkj%%%jjjj%JK%klJKLM%klkjjjJ%jkJMKlkkJ%kJ
16534gK%jjjjJJJ%jjj%%jk%KK%KK%jKLK%jjljJJJ%kj%JJ%%jkljJJJkllJJkljjKMKJ%JJjJMKkkj
16459gLJkkkJJjj%kjJJjJJJjjJLKJj%KK%jJJjJJkjJ%%jj%K%jkjlljJjKMJj%j%%jjj%LKKL%ljML
16383DJ%%klj%kj%JKJ%J%j%%JJJK%jljJML%JJJ%jJ%%j%KKkklkkjjjk%KLMKkk%JJJklj%jJ%jkjj
16308cJKj%JKJ%KJ%%Jjk%JJkkjJKJKMJ%%JLLNLLKLKKLNPRJ0J1J4J6J6J8K2K6K7K8L3L7L9M1M4
16249D45M8N1N1N2M8L8K5Nj6l4m9n7o2o3n9n2m6m1l7l2k7k1j8j8j6j6j2j0ooljjkjJJJNNMLNOR
16203I7ROPQQRQJ0RJ1J1J4J3J1J1QQQOOPNKKKJKNPRJ2J8K1K3K5K9K9L1L3L6L9M2L9L3K5J7J0Nl
16154G84j1j5j8k2k8l3m0m3m2m4l9l2k7k3k1j8j7j5j1qnj%KKJJKJjknnoj0j2j1j3j3j4j4j0ppo
16108A44nnnrqpppk%mll%JKKMMOJ0J3J4J6K1K4K6K9L4M0M2M1M4M7N0N3N5N2M6M0K8Qj4l4m9n9
16061F75o4o5o3n7n2m6m0l5k8k4k2k0j8j4rqqonoonmlmlmmlnkJKjk%jkl%JlljJJjkj%%%lkj%J%
16002B3j%jk%JJJJJ%lklkkk%j%%j%ONKLJ%%%Jjj%J%%%%%jJKj%Jkmmj%Jkk%j%jk%J%%%J%KJK%km
15928A0mj%%kjjjkjkjj%J%%jjjjKKKKKMM%lkj%KJJJKJJJlmkJ%%JLMKjkjKJj%jj%jjJ%kk%JJ%%l
15853Dl%%jj%jkjljLKKK%kkjKKK%jjj%%k%%JJJ%J%kjjjkj%K%jjkjK%jJKKjj%%%%%JJj%L%%jJ%J
15778bJjkJK%%JLJkjJjj%KJjk%jk%Jj%KJ%jJJkmjJJkjLJj%%jjJJjkk%%%J%jKLKJjl%Jj%JJMK%k
15703A%%j%KL%jkk%j%jll%%%KKJ%%K%JLLJjllkj%%kkj%jjjJK%l%%JKK%%j%J%%%%%j%%%%%KLLKK
15628EJ%%%%jj%J%%k%JjkljJJ%JJjjk%jj%KJJjj%J%j%KLMKjjjjjjJJKKK%%jllkjJMJlmk%JJKLJ
15552Ejjkjj%KJJkkkj%%%%LMKjml%%JKLjkllJKJ%KJk%JJJJ%Jj%KJ%kkljjKJJJ%%%KK%kJ%j%J%J
15477F%%%%%%J%k%%kkkjjJK%%%%J%kjKJJKjk%%%JJjlkjkJKK%jjKL%kLKJj%KJjlkkKL%jJjl%KJK
15402FJ%j%%JK%j%j%j%jk%jlmjKJ%j%j%JJ%%jJLJ%jKK%kjj%%%JJJ%KJJJjlkJ%%jkjJJ%kjJJjjk
15327dJKjj%jJKjJKLjJJ%J%jjJJKLjnmj%JjJ%J%j%K%jjj%%%kjjjjjlkJKMMLjjK%%%JKKjjjjk%j
15251@%kk%LLL%JKJkkjKK%%%%jk%KJJ%lmkk%%%K%j%%KLK%lkj%%Kj%%%j%%jkmmJK%klnl%kjJLKj
15176a9J%%%JKLJjJLKKKK%JKMKLLKKJJK%JNNK%JJJ%%LLjmkjjjkkjklkjJJjjjlmj%JL%kJJklljJ
15102IJkllkkj%%kkmj%%LLJJ%jjkjj%Jkj%klJLKLL%JJjj%jjJKKLKJlkjkkkJKJ%JLMJklJJJjjj%
15027@LLJ%K%j%JLLjJML%klkjjjJKKjkkj%jkk%j%jJJJ%Jj%jj%JJ%jlmjJjkkKLJ%JL%kkJ%lkjJK
14951bjjJJkkjJLJJKJJKJJjjjJKJjjjjj%JM%%K%%jkljlkJKj%k%%jj%%%JKJkJJllKK%Jj%KK%JJk
14876Blj%JJkjKJ%%jJJLKLJ%%jjjJKJmom%KjkkJLLJkk%%%JJ%%J%l%KJj%kk%LJ%KJkjKLjkjKKKj
14801FjJ%J%%k%j%%%%Klk%kkJKKkljjlJ%jJLJJ%%%jjkk%K%jjkjJJKLJ%%jljjjKLM%l%K%%%jj%K
14726b%jjjjKKjJMJkkkJJlmjKKjjJJJ%jjjkJKKLL%j%%KKJJKjjKK%jj%KJk%JKJ%lJLjkkjjLKJLJ
14650A8jJ%JLKjljj%JJ%J%jlkKLKJJjlm%KKjjJjjlljJJjkj%JK%l%%j%%j%J%J%jlkjj%kl%K%%J%
14576bJjkJJJJJ%jk%Jjlk%JJ%KKLL%%%%jj%JJ%%%%Jjjj%j%%%jJJ%JJjkjjKKJ%%%Jjnk%knjKKkj
14501iJLJj%JJ%%%%%KLjkJKJJKJ%%Jk%JLMJjJjjjJJJ%mk%%jKLjkjjjjlkj%KKJ%JJJ%jllkJK%jJ
14425BLKjljK%%%J%jkJ%kjJJKKjjj%%jjj%J%%%J%jjJLJjj%%JJ%%%%lkJ%%%%JL%%%jjLKJJllk%j
14350AL%kjJJ%kkkj%KJjjKKj%Jjk%LJ%%kjjmmJMJkjJjkjjkj%%KNMK%%%%LKkjJLJkm%KJjkjj%%j
14275ckljj%KJ%%klJLK%ljKJKKJJK%%jlkj%JKKJkljKJll%Jk%%%JKJ%KJjKJkkkkjJ%%JJLL%ll%L
14200dKJJj%%jjkkJML%jkkJKLKJj%kk%KJjjkjjJKkmj%JLLJJkjJJj%kkkjKKjJKJj%JKjljJ%JKKj
14124B%%%J%jlk%%ljLMNJjkljJJ%%Jjj%KKJ%jjkj%KKjljJjl%%KL%lkJKJ%kjjjJKJjjJjjkj%J%j
14049gJ%jjjK%kkjjJK%K%ml%%jJLLkl%J%j%jJK%jj%JLLLLL%ljJ%JJ%J%JJJKL%kJK%jlkKKJJ%jJ
13974A1jjjljKJkk%%%jjk%JJkljKLLj%%kljkJLKKK%%KLJjlk%Ljj%J%jk%J%jjkkJKMJkljJKLKKj
13900I%%jjkj%%%JjjjkjjJJ%j%k%JKJ%jJkkJ%j%Jj%K%lkJKJJKLKkjjj%J%j%JjkjLK%jkk%jmkLL
13824c%ll%LJ%%jk%JJJjJ%%KJkjKKjlkjJLNLKLK%kk%LKJ%%kk%LJ%KK%%JLKJjjkllJJJjkmjKMK%
13749A7%JjlljjjkjKJjkllk%JLJ%kjjJ%jkj%jJJKKJ%%%klmljJJKj%MM%jjJ%jjjkjjKKJjkjJ%JK
13675dJ%%jJL%%KKJJJ%%J%%%jklj%%JKKJ%%kl%MJkjKLKJjjlmJKK%kk%J%j%%%J%%J%kjJ%lkJ%%J
13600AJ%jJJj%k%%JJJ%JKJjkk%%kkKKjjLK%j%KK%JJJMLjkll%LKJJjkjJ%jk%JjjLL%jmj%nnkJ%j
13524cjjJ%KJJJjkj%jLLK%ljK%kjJJj%KK%lmkj%LMKJknk%%jJKKjkj%j%JKMMKJ%kmqm%LLJ%%%%%
13449c%JMK%j%J%j%%ljJJKJkmk%%%%kKLjljMM%lmjJ%KJkjKj%OLkl%%jkjj%J%%jkkj%%LKKJ%lmJ
13374hLK%j%LMKKJ%jjkmkKKJK%kkjKK%jJjkjKK%j%jkjkk%JkjJJJK%%JL%k%jjjjjLMJ%LJkjklkk
13299ek%MMJk%jk%JLLJjlkjK%kJLJJ%KjlnjKKKJ%KLJ%%jjJJj%%kkkmk%JKLJJ%ll%JKJJJlkJJJJ
13223CjKKjkJK%%J%klkll%J%%%%KKL%JLKKJJJjkkkjjjkmkJKjjKKJJ%KJjjklnjJJjKML%jj%jjjJ
13148bJJjJJjkJjj%JKJ%jkkjKLL%ml%LM%jjlkjjLKkkkj%j%JJ%jJ%JLM%jjjkJKKK%%K%%K%jjjkj
13073A%jjjJKJll%%jlJKJK%lkJMK%JJ%J%jJ%kkjjk%KKjjkjj%%jjJK%k%JJ%nkJLK%JKJ%J%%%Jkl
12997fk%LJ%KJkk%jLMKkkjjkk%LLKj%j%j%JKK%%%jJKKJjjjjk%j%KKJJ%%jjjjljj%%JJJ%LMJJ%k
12922HjjjjlkJLKK%%KLJll%%KJ%jjklmjJK%kjjl%J%jk%K%JLJ%jj%%ljKKjjKJlkk%KJjjj%KJJ%%
12847eJJ%kjJLKJ%%JKJjj%KKJlljjjjjLNLJJ%kjk%jljJK%%KJ%lljKLJ%%JjmjJK%j%Kjkj%j%jjJ
12772bJljJJLLk%LK%kkjjLMJjk%%jjJJJkkjjk%KK%kk%JJ%JLLKjkl%LJ%j%LK%lk%lkKKJJkkKJJ%
12696GJ%jmkj%%jk%LKjkJK%jlkkjj%JKLLLJ%JJK%lm%JJJjklj%%j%kkkJLMJ%%%%%kkJKJJjjLJjl
12621anJMjkjjkkKMKJJKK%kmjJLkl%KJJJ%%%%kkjJJLJjkj%jjKL%jjkj%kj%MLjJKJ%jllk%%KJKJ
12546@J%JJJjkj%jjjk%JJ%JJKK%J%kkJJjk%Jkm%KjjKKJJjj%jjkjKJKKL%jJKjj%ll%jk%%K%jjjJ
12471fKkkJJj%KJ%%%%JLKJK%kk%%jk%%jjJKJklJLJ%KJJKJjj%%J%K%kJJjljj%jKJ%KJklk%%%%%j
12395a%JJ%%%JJj%kj%%LKKLKjj%kj%kk%J%JJjj%%%jlj%jkl%JJJK%%jj%%KLMM%kkj%%KMM%lkJjk
12320F%k%KJ%jkJKKj%%%%%%kj%kjJ%KJ%JKkkj%jjj%J%%lllkJK%JKJ%%kjJ%kj%JLJ%JJjmlKMKjK
12245AKjlml%MM%j%%ljjjjJKKJj%JJJ%kj%%jJJ%j%JKJ%Jj%%j%JLKjkjJjkkllkl%LK%%jJKL%JKj
12170ak%%kk%KJ%%jjLNKjkk%jJLKjll%j%JjkJKjkJKJkkKLKK%jK%%%jjklkJLjk%Jjkj%%KLjkk%j
12094hkjJLNJjjk%Kj%J%J%jkj%jJKL%%KJ%%%kkjjKLJ%lk%JJJjlKLJ%JKKKjk%%%JjjkkJKklJL%%
12019CjljKKK%kjkjKL%Jjk%LMM%j%JJ%lj%J%jjJJLJjjkmjKJJjmkjj%k%Jk%Kjlkk%J%JJKL%%LLJ
11944Fjj%kmjjjKJ%KMKkjLLJjjj%jJJ%JJjlkkk%K%jJJ%JLjkjj%%J%%JjjjKLJjJKJJJJ%jkk%KKj
11869A1ll%KLj%J%%KKjkkKJjkjjJJkl%JJjJJK%jjK%lk%j%J%%jkkjJ%jj%JKKLL%j%%jlkj%KJ%jk
11794@j%%JJJKKJ%klk%Kjlj%kljJjk%KLK%lljj%KLK%%jJkjKLjl%Jkj%%JJJJ%kjjjJM%kjJK%JLJ
11719@jjJ%%KJkjJ%kj%JKjlJLJKKkljJKJKKjj%%mmkjjJL%kjKJj%JjkkkJL%jJ%%KKM%lljK%%%J%
11644b%%%KKJ%%%%Jj%kl%JJ%%jjJKLjkKL%jjj%KJ%JkkJK%kJKK%%LJj%%j%KJjlmon%KJ%kk%Jjjk
11568ijj%%L%j%%JK%%JKJKJjKKJ%j%%JJL%jjJ%jl%%JKkkj%JLKJKjjj%JLMJlljKjjjk%%KJ%jjjJ
11493H%kjJ%jkkJjkj%JJJjlj%JKKJ%kj%KL%lml%MJJJ%JLJ%jk%Kkmk%jJ%kolKNLJKJJ%jj%JLLjk
11418CkljkjJJKJ%KjkKMJjnl%jk%KJKMLjkKMMJ%klk%JK%JJ%jKK%jkk%%%j%J%jkjJJkljJJjk%KJ
11343ClnljJLK%JKKjkjj%K%%J%%LJjk%j%%LL%jk%LM%%%jJKkjkkkll%J%%%jjlJMKlk%JKJJJjk%j
11267c%KLK%J%jll%LMKj%K%lJOKk%Jj%KJJKKLNNLLLjjK%lmmmj%jlmlllkjljJ%jjj%LLJj%jjJ%%
11192E%%jjk%LJ%J%%Jjkj%%kklljJ%%%kk%LJ%jjjJKJJ%jJ%jJKL%ll%%%JJJkk%jJJ%%jJK%%LKJ%
11117Blj%jjlkJ%jKKJJj%KKL%jj%j%K%jkkj%L%lkJJKK%kl%JLLKjj%jjkj%KKj%J%%KKj%%kkjJjJ
11042@%k%MJjkjk%KLK%jkJ%jJJ%jkjJJKLL%jknjJ%J%jjlk%Kj%KJkKLJ%%JJjjJJJjkkl%K%j%j%J
10966ak%K%jjJKJJjJLJjlljjkj%k%JKKKjjJJ%JK%kjlkjKJ%jJ%%j%J%%JJJJkl%JjkJKK%%ll%JjJ
10891gLLLLJllj%J%jJ%ljLKJjlj%jJ%%%jj%%J%%%LJ%JJjkk%JJ%JKL%kjJJjJKK%JjjkjjlkjKOOK
10816A3%%jmljJjJ%j%%%kl%KK%%kjk%LJj%KlkKKjJ%JJ%kjJJJJkkKKJ%K%%J%%JJkkj%Jj%klJK%j
10742CJjkJJJJJKK%kjjk%%jjjjlkJjkkKKJKJJJJmk%KM%lljkjJK%%%j%%kjJKJ%jJLLK%jklJKJ%j
10666@%KKKK%%%%j%JJKL%lj%J%j%K%JKKJJ%k%%jjJJMRQQQJ0J3J4J5J6J8J8J8J8K1K4K8L2L7L2
10607C68J4j4l5m2m4m4m0l2k4j8j6j4rrqpopnmmmlj%jkJKKll%KKLJ%jj%jkk%LLjlJLj%%kkmlJ%
10546a6%KKJJ%j%llLMKJjj%KMK%%%l%K%jkkJLJJ%llJJJK%J%jMLlmk%JJ%%J%J%%KLJjkjjjJ%jkk
10472djKLLJ%jkk%JJK%kJJKJkkjKjk%JjjjjJ%kj%JLJjjJKKjjjJKKLjnmjJJ%KL%lKLJjj%KKJkjJ
10397HJ%%k%KLKklllj%jKK%k%JJjj%%J%j%%kkl%LJlllJLKJjlj%JJjJJ%kKK%%K%k%kljjjJKjJMJ
10322bj%kkj%kjKLKJjkjJK%klkjjjmmJJ%%%JMK%JK%k%%J%kljKK%jjjJNM%llJ%kJNL%k%L%%%%KL
10246BL%kljjLNK%%kkkJLJkjjjJKLjmjJK%jJjkKKjkjjjjJKLKjjJJmnjJK%jJKJJjjJJjkkk%JJjl
10171e%KJ%MMK%K%JKKjJJjk%KJjjLK%jllmk%jjjj%J%%kj%j%%kjK%j%J%%JK%kkjlllj%KK%%KJ%j
10096hk%kj%k%Kj%K%j%%KLKj%jkmjkk%%JJJ%%JJJJJJK%jj%%JK%%%kjLMJ%%%%ll%%%KL%J%jJJJJ
10020AjjjJJJkkJK%kjjklJLJjJLjjjj%KLK%jjjJ%kljkKK%%KMLJjjkkk%%jJMM%jkJMNJ%KKJJLOP
9945C6LLPRRJ2J2RJ2J5J4J3J5J6J5J3QLmj6k2k1j9j8j5j4j2j4j1mklj%kmlkmmk%%jllJLJJKLMM
9890C9MMNNNORJ1J0J2J4J4J4J4J5J5J2RQQOJJkqj2j3j2j1j1j0ojjKOORJ2J0J3J7J9J9J9K0J9J6
9841C41J6J5J1PKlj0j3j4j3j7j9j9j9j6j3j1j0poljJLNPQOOPQMJ%LMOQJ0J1J1ROMJKMMjpj4j7
9789B98j8j7j9k0j6j1j2j1rponljk%MPRJ0J0J1J5J6J8J9K2K7L0L0L2L4L9L9L4L0K7K2J6J0Lmoq
9744F37j1j2j2j6j9k5k9l4l7m0m1l9l2k8k4k1j7j4j3j1rolk%%%JLPQNNPJ1J4J5J5J4J5J5J9J8
9700C14J6QKkqrj0j0ponnnnnmnmnomoqpmmllj%MQJ1J1J2J3J2J2J3J1J0J2J2J0RQOJj0j5j6j8k1
9646B94k2k3k2j8j6j4j2qoml%LMOQRRJ2J1RRMklorj1j3j3j1j2j3j6j5j4j0pomkmollklk%%%KKk
9591D2lJMNKJLLMLKNMLNOOQJ2J1J1J3J4J3J4J5J5QJqj5j9k0k0j7j6j5j3j0j0qrpmklopm%Jkmmk
9535GJJJK%lj%jjlmk%%jkkjJjjj%j%kkJKJJKMKjj%%KKLJJJ%%%jkjKMMjkJjl%LJjJJj%Jj%kmk%K
9459CKJjj%k%Jj%%kjJJkjJK%%%jjJKJJJ%knj%jJL%kJLJ%%%%%jlj%%jkJL%j%Jjj%KLL%jjmmjLMK
9383Cjkjj%JJ%j%KKJJ%kk%%%JK%%jkjKLKLJ%j%%kKMJk%KLKKJ%j%J%llJJkj%jjjjLKj%JjJJKJlj
9306A7%jkjlk%kkJKJKJ%%jJJ%lm%JJJ%jjkjjjklk%jkkjKK%Jkk%jlljj%j%jkj%KMKKK%%KJ%%jJJ
9231iJJjKL%%KKJ%KJ%k%JLjj%j%JJJJ%J%kjKKkkkjkkj%J%JMJjjj%%%JKKJ%%jmk%%%%JKjjklJMK
9155D%Jjkjj%%%J%KjjjJKjllkLJjk%%%jj%%JJ%%%jj%jj%KLJ%J%jkkljJjljKKLKK%jj%%JKKjkkk
9079hKM%nmJLLKJ%jlJMK%%KMMKJjj%J%kj%%%JJ%j%%J%jJMNK%j%JJ%%%jk%JJjkjjk%%j%Jjlkj%K
9002A2J%jllkj%jkjLJjljJJjlk%jJKJ%k%%klkjj%JJjj%LKKJJJ%%J%jJMLJJJJ%%JkkKK%JKJjlkK
8927IJj%kmljJJjkkjkjKK%jkk%JL%%%jkJLJKJJ%jjJ%%%%%Jjj%%%JJKJJjjJLJklkjJJj%%kkJJj%
8851b%J%jjjj%%k%JKK%%%jJJk%%jk%KJjJKKJ%lkJKLJjkj%JJKK%%Jjlkj%kjKJkkj%JJJjKKJjJjk
8774aj%kkkkjJJj%LMKjJK%%Jkj%JJ%%%jJJkl%%K%lkKKKJJKJJjll%KKJJkj%JJJ%KJ%j%%J%%%%j%
8698GlljjkjKKjkkl%J%%JJLKjkjjjJJ%JJKK%JLMJjjlk%%KKK%kk%jjKKjjJkl%JJkkjJJJK%kj%%J
8622BJJKJjJJ%jljklkJK%JK%%%J%JKK%KL%%%kjK%jJj%KjkJ%jjj%%k%KL%ljLL%kk%Jjk%JJKJ%kk
8546HjKKJLJlnj%%lkj%jjjJJ%jj%K%%%%L%kjKJkljJJ%lkK%jKjjKj%%jjJ%JJ%JJkkjKJjJK%j%%j
8469cKK%jKJkj%%JJ%j%JkllmkJLKjljj%KLLJjjkj%kjJJJjkJKJjjJLKKJ%jjjJ%JJ%kkjJj%%%jk%
8393hKLJK%%J%%%%%%JKJ%%klkljKMLJjkjk%%KJJKJ%%jJ%JJ%jKJkjjjjkjJJJ%k%ljLJjjjjJLJkl
8317c%%J%lk%%JJJ%KLKJj%%%JJKLKJK%klkj%jmjJJ%%jj%j%%J%kjLLjk%%%JJkkJK%kjjKKJjLKjj
8241EjjJJjj%jljJJ%JJ%%j%J%kjJLK%jk%J%%j%%%jJ%j%jj%%jJKKL%kkkj%L%J%j%KjljKLKjJMJ%
8164A1JJkj%%kk%Jklk%JJk%KMK%llk%%lkJJ%JJ%kjKLKJJKJkk%jlkjJ%kj%%J%j%%LJ%jkl%L%%J%
8089c%LJjlj%KMJJJL%klKJj%%J%jkjlljJKMJk%J%jjk%KJjkJJJklj%k%J%JJkljJ%JLLJ%%K%%KL%
8013Fj%Jjkj%%%J%%JKJJ%jj%%jkl%KJj%KK%j%%%%%jjjJLKj%JJjjJK%jJJkjJJJj%jkkJ%%%%jJ%j
7936EjJ%jj%jjJjjJkljKKJlkj%LL%JLKjkkKMJljJ%%%%%K%llkkjJKK%%j%KLJKjk%K%jlkJK%JJjk
7860Cj%%%%%jlkjJMLLJlmkJjl%JJKLKklk%J%%%J%%K%lJ%kjjkkjJKJKJ%%kk%MJ%kJK%kj%%KKjlJ
7784cJ%jJ%kj%JKJjj%%%K%k%KJ%%JkjKJjj%jjKML%kkkkkJ%%%JJ%J%%JJJjlkJ%jJKJjkJJjjjjk%
7708fJJ%jj%JJ%%%%kk%KJ%J%%J%kj%J%jjjJJJKJ%kj%JMMLKLJjkj%KL%kk%kkjKJ%%jkjkjJK%%jj
7631BjJJjjkjjKK%jjlkj%j%JK%jkjKLKJJ%JJjJjk%K%%jjKJ%jj%K%km%KJjkj%JKJljLK%kJLK%%%
7555D%JkJM%kJ%%%%JjkjJJKJJjljJKJlnm%%JK%jjj%jkjJ%%JjjJ%k%jk%%KKJkkJLL%j%%jJ%kj%%
7479g%jKKJJKjjJKjj%%%jjkJKKJ%%KKJKjlnjJJkkjKL%%JJj%JJ%j%JJKKJ%kmmlJMKj%Jll%kk%KL
7402bJJK%kJKjjkjJJj%%jmk%%%jj%KLLKK%jKK%kll%KKJjlk%KLJ%KJ%jJ%j%JLK%jjmn%Jjk%K%%%
7326aj%jk%%%MLj%KJ%jlmjJKJjlkJJJ%j%J%jJJJjk%LMJ%%%kk%MLK%jjlljjk%JLJkj%%%J%%%%KJ
7250BJKK%%%%%j%j%J%%Jkjjmkj%JJjjJ%KJ%jkk%jJKjj%J%%%JJKKKjkJJ%jj%%%kk%J%%%%KKLJj%
7174Ej%J%jj%%%JLJKJkl%%JLJ%J%jjkkkJKJ%JJ%k%K%jj%%jj%KKJjjjkjK%kj%jkk%LK%JjKKKJll
7097EJJ%jJJJ%JJ%JK%kkJK%%%jklkk%jJJjk%%%jkJL%%J%kkljJJKJJ%jk%j%%%%kjJLJ%kKJjJKK%
7021DJjkjkjjj%kmjKLJJ%llkjjJJk%%kjJKJK%kj%%j%jjJjj%%JJJKJj%jkjJj%KK%%JLJk%%Jj%Jj
6945a0j%JJJ%JLKj%%J%%JKJjll%JKK%llmk%J%%JJ%j%%JLMKkjjk%%LLLK%kjklj%KKJj%%J%J%kmk
6869f%%KLklkkj%%%%%kk%LMKKKKjkjKLjkJJjk%JJKJ%kjJ%%kkj%lkJKKjjKLK%K%%%J%lkjK%jJJj
6793ajJJjkjJKJ%jj%J%jJKKKK%%%%J%kkj%%k%KKJJ%jljkjJJJkkKK%%%%JJjjjjjJJjj%%j%%k%KJ
6717aJJ%%kjjjJJJ%JjlmjKMMJkJJk%L%kjkk%KK%j%jl%LJ%%J%JKJ%kmlJKkj%jkJK%jJ%kjj%J%KJ
6641eJK%jkj%k%%JJK%%LKJK%%jkJLJJjj%Jjjj%JJjk%KL%%%%kJNMkmmlJKJJj%kjJJkkKJkkj%%jj
6564cjjKKLJkjJJjkl%KKJJk%%%%j%%jjJ%JJj%JK%%%j%KJ%j%J%ljLKJ%JJ%ljLLKKJkJ%jlkJMMMK
6488B3jkjJjmoljkl%J%j%K%JJkjjjJ%JK%llkJMLJmlkjKLKJ%kjJJJMKjj%jj%KLKjkJKMMLJ%%lkj
6413A7jlmmkkonKMKJ%%K%ljKJ%%%j%kljLLKJ%KJJMKJJJJjjJJjkkj%kljJJj%Jj%JKJ%jj%%kk%%%
6338C%%%K%jj%%JJJkl%J%jjJ%%JKKKLKkjjkkjjJJJJJjkj%%%J%kkkk%KM%kkkjLK%%J%j%KJj%jkJ
6261ALL%lk%j%jjjJJKJKLJk%klj%lmJK%kjj%KKJJ%l%KKKJ%%%%%Jjk%jjjJJjJKJj%%JK%jj%j%JJ
6185Djkm%KK%lkJJLKk%JjlkJJljL%%%kj%KKJj%KJknlKJ%jj%%JKMKK%JK%jl%LJjkkkjJJjj%J%kJ
6109bJ%%J%jkkJKjl%Jk%J%j%JJKJj%KMJ%kkklkJLJkjj%JLMKjkjk%%JKKjlll%LNJ%JMKllj%KJJ%
6032FkkJ%KK%j%jj%%JJ%kljJjkj%Jjjj%KLKKjjjjj%jjkjJ%%jJ%j%JKJ%%j%KJJjjJ%j%KK%%kl%L
5956AJJJ%k%LjljKJkj%jk%j%JK%kjjk%%jJJ%JJKKj%JJLMjllk%jjJJlkKLJJKjlmlJLJJJj%jkljJ
5880hK%jJKLKJjkj%%KKJj%j%%kjKL%%JJ%jkJK%%%JJkmjJKJJJJ%%JjllKJjj%%%%kj%%JJ%kjKJlj
5804cKNLJJjj%kkKLKkk%jkjjkJLLK%jj%jKJK%%jJJkj%%JK%mljJJjk%%%jkjjjKMMjkj%JJ%J%jkk
5727@jJ%jjj%JK%%kk%JKLJjkkkkj%JKLKKjlljKLLJjjkjJJJjkKLL%nn%LKKJ%%JJ%%j%jJKKkllk%
5651@kmjJjj%J%%jljJJ%LKj%KKKJjkJK%%jjK%jJJjJKK%kjkkkJJKJJjjlj%JKKkmmkJJJJ%jj%JJ%
5575fj%%kkjj%jjjJJJKKLJjj%jj%JJKMK%%KKKJkj%j%J%LLjk%KJK%jkl%jkJLJJJ%jjjJjk%%lkJL
5498EJJJjkklj%k%JJKJjkkjJLKLJjlkJKJkkkjJJKJKJ%kjjkj%K%J%jJ%jlk%J%Jjkj%KJj%KKkkLL
5422AlnjjJMLJ%JMJkkj%%kl%%J%JKLjjj%J%%%j%J%%%%kk%%JKJJ%%j%JjJK%kk%LK%kmk%LJ%j%jj
5346bjjJJKJJJKKkkjJj%KKjkl%J%%%j%JLJ%j%J%kj%kj%jk%%%k%LL%%JJ%jk%JKKjkj%J%%J%jKKJ
5270Fkkjjjk%LKk%JjJjjJK%jjKK%jJK%Jjk%%%%%%%JJJjjJ%jJLKjkkj%kmJLjlj%jJJK%l%KLjllk
5193fkj%JJLKJ%jkkLLjkJ%JJ%JKKlklmkKJK%kJKKJKKKJ%kjKL%mmjJJ%j%JLJklljJJJJ%jJ%j%J%
5117A%kk%KJjj%Jkl%JKKJ%%L%jjlmkkKKKMM%kk%J%j%%j%JJkk%J%%%jlk%KJKJJJK%%%%jJJllJKJ
5041A%k%J%Jklk%%JKJJM%ml%Jj%%%JKKK%kkJLK%J%%j%%jjjjjKLLL%j%KjjJJKJk%L%nljkjJLJlm
4964BJM%kjMMKJ%kmlkkjJLJJ%%jj%J%Jjjlkkl%LLJjJ%jJKKKKjk%klk%%%Jj%JK%JJJ%%LK%J%kkk
4888FjJJJJJJJ%%KJ%kjkjlkJKJ%kkJJJkjJJ%%%%%kj%j%%jk%%K%jjkkj%JJLKjmllkJMK%JKJ%JKj
4812AjK%ljKJ%%%J%j%%%JKKJ%K%k%JjkmljKKJ%%J%J%kkjjKLJKJLJknmJNLj%%%jj%JKklk%%Kjjk
4736@%%%ljj%KKJKLJ%kkjjK%lk%J%jjJMMkljLMKkkklkjK%%K%jjJK%jJJ%jl%LLJ%kJKKJjlljJJ%
4659C%JklkKKJ%Kjjkjk%J%k%KJjjj%%%k%%JKJkj%JJJJL%mkj%LKj%%%%J%%JKK%kJJjkjj%%%KKKJ
4583GJJ%%%mljjjKJKMKkjJ%kjKjjKKJJJ%jj%K%llkjjKJ%JJJKKjjjkkkkljJKjj%%JJKLJjkljLLj
4507DkjJJJ%Jjkj%jjj%KJj%%Jj%%kkJLL%ll%%j%LJ%jj%jkjJ%jjJK%JJ%jJJj%J%kjLMJljk%%ml%
4430iJjlJL%kJKll%KJjJJ%kk%%JK%jjkjJKLJJJ%jKJJJ%JJMLK%kl%KKjj%%%k%K%mkJJjllJKjJJ%
4354akkljLJjjJ%%%jklLM%J%J%jKMjkj%%j%LKj%J%%JjjJKJjmlj%jjjJK%kJJJLKjjJ%kk%jljjk%
4278a1J%KLKJjmjJkkKKKjjJK%kkJ%kjKJJLMJkm%%kJJKJ%%Jjj%j%KKJJKJknkkJM%%KLK%kj%lkjl
4203ekLMKJJjkjjllKKj%jlnljMMLJJj%JJJjjjJKJKKJkjj%KJkjJjjj%%%%JKkkJLK%jj%%jJJJjJJ
4126Djjj%LJJJJ%jkllJJ%%Jj%KKLKkmlk%J%kjjjJJJLLKkkj%jjjJK%kkljKML%KKkljKJ%kj%J%JJ
4050CkmkKKKKJJJ%jjJJkj%kjJ%%JkkKKJj%%kkjjj%%J%j%Jkj%KKJ%%JKKLKj%KK%KlmkJ%%%%KJJj
3974Hkk%KJ%j%JjjjJjjJKK%k%J%k%%%jjjJJ%lkjj%kmkjJMK%jjjJJjjjJKJ%k%JJ%%%klJKJJJjjJ
3898eKLJjkjJK%j%LLJJjJJ%JKJjkJJjjkjJjkj%k%KKLJ%%klj%kj%JKJ%JJjkkjjj%%K%lj%kj%jj%
3821i%KK%JK%lj%LMLJ%%KLjjKNNMKJjJKJ%J%J%mlj%K%lklnmlmkj%jkjlmlk%jnl%%KJJKjj%%JLK
3745a6KJkjKKJJJLK%%LKLMJjjJKJJMMJJkmjKJJJ%JKJJKK%ljk%J%%jJKJ%LKjjJ%kk%KJJkjJ%j%%
3670B8%jkkjjJKJj%%JKL%lmkjll%%jkJJJjkjJ%MMJ%Jkj%JJ%KLLJ%KLNMMJKMLKLKJ%KJLNMMOPQQ
3594A13J0RRJ3J8K1K3K6L0L3L5M0M6M6M6M5M7N0N3N3M6L6K3Lj6l3m8n9o4p0o8o3o0n4m5l8l2k7
3556A97k1j5j4j5j3rponnlKJkLONNOPQRJ0J2J2J1J1J1J2J1J0J2J4J5J3J0J1J1POMJ%j%jkjJJkj
3503C32jj%JLPQRJ1J4J3J2J4J7J7J4J6K4K7K7K7K3K0J9J3Njpj4j8k2k8l0k8k8k8k7k5k2j9j7j4
3460C43j1rqollnljLLMMKJKJlonoqj2j1j0j1j2j2j3j1j0j0j1rrrpqqponmlk%ljKLJJKMPRJ3J6
3401A40J6K0K2K2K5L0L2L7M0M2M4M4M4M4M5M4L8K8J5lk0l4m9o2o5o5o4o0n3m5l8l4l0k5k1k0j8
3364F6j7j3j3j2qnmnk%jkjkkjmk%%jjjj%kk%jlj%JK%lkJJjkjLK%j%%JKLJjjJLMMK%%KKKKjjjkj
3292b0J%j%j%jk%KJJ%jk%J%%%JjjjjJJ%%JLJ%kkjjkjjJLJmmjllkmkkmkJ%j%jk%%JJJJLKLLMJJJ
3217c5KMKlllJKJKKJjlkjjJMK%%k%%JNPNJjjK%%KKKKLKLKJjjjjLKkjLM%JKK%jj%%jKJ%JJkkKMJ
3142B3kj%jkkj%%j%llJKj%K%%jkjjj%K%jkJMJjkJKKJKlmjJ%%KJkmkkjJKJ%JJjjjjj%JJjljKMJj
3067D%JKkk%K%jjjjkjJJ%ljjkjkjJ%j%jj%%jJ%lkk%JK%jkkllljJ%jKLKKLjjjJK%%LMMK%jKJkjj
2990iKLKJK%%%%%%JKjljkjKMKK%mj%jmml%%kjklkjk%JK%kllj%%klkkJL%j%%JMJjJ%%J%KJjJKLN
2914a6NLLK%%%%%%j%%%%KJ%kkkjlk%%lll%%kmlkkjkjKKjlljKJ%JKKKlkJJ%KOLJ%%kkjJKLL%JLK
2839a4jj%ljJjjjJKKj%jkjjJK%%J%JL%jkjj%JjmmkJLjjJ%lJLj%KKMMLMMJ%%LMNLJ%KLMKkk%J%k
2763A9%KJllkjjkjkkjkkjjk%knlklkk%J%jKL%kkkKMK%JjlkjJLKjkJJK%%kjJLNLKLJJLKljJLKJJ
2688A0jkKJJ%JKJllkkj%JKJj%%kJJj%KjjjjKK%%KKjkj%j%kjJKj%%lk%j%J%%J%JK%%J%JJjlljJJ
2613BLjk%KJ%knnjLKKJjjJ%j%JJ%kl%KKJjk%JKJ%kkjJJ%j%jkkjjjk%%lmmljKJjll%%%kjKL%jJL
2537b7JjjK%lkkj%LMLJ%%JKKKJJ%JjkjLL%%%%JMK%JKJKJjjJKJjll%JJKjlllk%jLJk%LL%kjj%%K
2461eLKKJkkMNJ%Jjjkj%%kllk%jmllkljJ%klkj%%%j%j%%kmkj%%jjJJ%JJ%jKJj%K%JKLJ%j%J%%L
2385b5L%JM%kjjjLKJJK%j%KLLJllkJKjlkkkkkjJ%kjLMJj%J%JjJMLJJ%mjLLjJJj%KLKJJ%%KLjmk
2310a%jKK%k%%%LJjJ%lkk%KJKLjmjJJKJK%%%Jj%%llJjmljJJ%kj%jkj%%kkKLKK%jJ%lljLL%%JMK
2234bjj%klJKMN%jKjj%%j%JJjj%%j%%jj%JKjjj%kkj%%JJLJJLL%nom%JKLKjjjJJJklJJKJJ%%%j%
2157aKKJJJlj%k%JJ%kjKKJJ%kkk%%jjJJJJJJjkkJJ%%JJ%J%%k%JJ%JkjJJKJJ%JJ%kkljJj%JJj%j
2081Ak%jjkk%KkkjK%k%LJ%jlk%KKJ%j%jjJKKjlkjjjKML%kjKKJJ%kjjj%JK%l%KKJ%%Jjj%jj%JJK
2005a%lkLMJJKKkjjlm%K%j%jkjJJ%J%KK%ljKKJ%Jkkj%%%K%kkjjjJ%jJKJkkJJkmj%JjjJKLK%j%j
1928hj%kjJ%LJjjjkKJ%jl%LLJ%KKJmmlJKKLMKKJjjlk%jlj%JLKjj%J%%J%%kjjjj%JJKLLjkkJJ%j
1852aJKjj%kkjKKJjJJJjjjj%LK%jjlmljLMOLJkk%Ljj%jljjjjkJLKJ%%J%jJJJjJ%%j%J%k%jjJK%
1776Cj%%JJ%kljJJ%kjk%%kJMLJJ%jJKjklj%KLJ%%%kjJKKKj%Jjj%jkljKK%klj%KJ%k%%kkJK%jjK
1700cJjKL%%JJjllj%j%KJjJJKMKjjkkkJLJkkJLKjllljJKKLJJ%J%jljK%mkKJKJjmjKJj%JjljK%%
1623cJMKJJjk%KJjkjl%JKKLKjmlj%K%jJLK%JJkkkk%K%kjljJJKJjk%KKJ%%%JKJjkj%jjL%l%%MN%
1547A0kJK%%JK%j%%kkjjj%jJKj%jk%jjkk%LK%J%k%%Jj%JJjkJJj%jlkJKkjj%JJj%JJ%%JLJJjjjj
1472@JjkjljKKJjjjKKjjJj%%%j%LLL%%KJklklj%JKKJJ%%%Jjlklj%jjJjj%KK%jlkKL%%jj%%J%JJ
1395dK%km%LKj%JJJjjkjKJj%jK%jKL%jj%%lmj%%KJjk%%k%%kjlkJLj%KKMJjj%%%KJ%%%j%LK%j%K
1319a%j%j%%jjkJL%%J%jjj%J%klJJJJjj%JJ%KJJKKkk%kkJKMJjklkj%%MLk%KJ%J%%jjljK%%j%J%
1243aJKJ%jjJJJjkkj%%J%j%JJJJjjjjjJ%jj%LK%jjjjJjljJJML%JLLjkj%jjJKJ%JKK%J%%%lkJjk
1167F%jkkljKJJ%%jjJK%%%JJ%jj%KJ%%kj%kmk%Jjj%KKLKjk%jjJKJlj%jjK%j%j%LL%JJljKKKjlj
1090@J%J%k%jKKJJKjjjj%J%JJj%%%%kmjKKJJJJJ%%jjJK%jJ%knmjJJ%%j%JjJJJ%%JK%J%j%KJ%jK
1014G%kl%%%k%JJkkkJLJ%K%kkljj%JJ%j%K%k%J%%J%%%%jjk%J%JK%kk%J%%JJjJKK%%JljJLK%kkj
938b%KJ%jjJ%KJKLK%%jkkjll%JJk%JjjJKJ%JJ%jjKJ%jJJJ%%JlnjKjjjj%JK%jkJKjJK%%%kj%%JL
860BKjjKKjkkjK%k%KJ%%jk%LMKkljjjJKkl%KJkk%KJ%kJLK%kJKJkJJjkk%%KK%j%%JjjkljJJjjkj
783eJLJJ%jjJ%jKJjK%l%LJj%KMJ%kkjJ%JjjklkJJKK%%j%%k%KjkjKKJK%ljKjjJ%jjJKjj%JJ%JLJ
706Ijj%%%J%%%J%jjkl%LKKj%KLjkkJJ%kj%JKLJJ%jKLLMONMMMMOPNLLLJkmooppolmlllkjmmlomj
629BK%%KKJjJKjlkjJKJkml%KJkjJ%kkj%KJ%kkJJ%KMJjklkjkkjJMKj%jJLJJKJj%jkj%KJLL%lkk%
551@KJKjmkJKLKJJjkk%%J%jJK%kj%kjj%J%kJMLJJLJjjjk%jjJjj%%KL%JK%%jlJKjj%%JJ%Jkkj%J
474HjJJKkj%KJjk%jkk%KJJJjlj%j%jj%JKjkJJ%JJK%jk%%%%JJKKK%kjJj%JJ%%kkjkkJ%j%KLJkkj
397Bj%jjKKjJK%jjjJKK%KLJJ%lm%JjjjKLKJjllk%jklkKLK%mljJLJjJKJ%%%Jlj%jl%K%kj%kjjk%
319a1KK%%JKK%jjJJ%jjJ%%JLKJjkj%JJ%K%jJ%j%K%J%jk%JjjjjjjljKJKKJJ%%klK%ljJ%%%kjj%%
243g%JJJJkjLK%jjJ%ljKJkkjJ%kkkJKKJ%JKJLJjlml%%kkJKJj%%%kk%KKLjkkK%j%J%JK%j%Jj%Jj
166i%L%lk%jkmk%LKL%jJKJkj%jjKKJ%%JJjmkKJ%kkJKJJ%ljJJkmkKK%kkj%JJ%%J%%j%jk%%%%KKJ
88a7%kJK%%JMLjkkjKjk%%KK%%JKJLKKOOMMQJ0J1J3J3J5J7J8K1K3K1K4K5K9L5M0M2L7K5Oqj5j5
33D15j3mNJ2K3L5M6O0Q1J02J29J67K13K67L29L96M54N00N43N95O59P20P53P67Q11Q97J009J157
4A1128J335J425J211N66l11j034j419j558j557j440j242j031q48p02n89n00m31l76l26k84k46
-17A771k09j77j50j22r8q0o5n0l8l0k6j7j2plNJ3J6Rrk7m0m7n0m9m3l7l3k9k6k2j9j8j8j6j5j2
-55B20qqqpomoqponmnkkkJkmmjkjkmlj%kllj%%jkkkkkjkJJ%%Jlnl%jkk%%l%jlJJmjJlk%KJJJ%j
-130F3jknmjjj%KJ%jjj%JJ%llkKKJJLLjjj%jll%J%j%%jj%j%JKjkjjJjk%K%jkkjKK%%jl%JjkjJJ
-205C2%%%JJ%%%kkkJJKJklJJlmjJjjJKKJ%kjllJJj%JKJ%%%%Jjjklkj%jj%KjkjjjJLLLKKJLKjmk
-281B1k%Jjk%%JjjJK%%jjkJKJ%LJlkkjK%jkk%KK%k%KJ%jjkjJK%j%kj%%%%jkjjj%J%j%%KK%%%%j
-356HjkjJj%%JJJKJ%jj%JJKLKjlkkj%%JJJjkjKJj%JJJjkkj%%KK%jk%%jKK%%J%ljk%%JLKjllj%L
-432FJ%%LK%jlkj%J%jj%jk%k%JLJljKj%KKjjK%j%kjkjkJJKK%kjJ%jj%jJL%kJjjJJjJ%jjjj%%KK
-509@%%KKK%jjJJ%jjJjmmkkjJLLJljJjJJ%kkjKKJ%%JJjlj%J%KLKJjllljJKJJ%%%KJjk%%J%jjJ%
-585cJj%j%%KKJJjj%JljJjkjljLLJKj%KJkkjKJlk%%JLL%%K%ljkj%%j%JKKj%JKML%JKKMMMLMNMK
-661D4JMNONLKkoplmnonmllmkjjljjkkjj%j%j%j%J%%KJ%j%jj%j%KLjkj%M%kk%%k%KjkLMKJjj%j
-736E%%kkjJJJJjj%%j%j%K%%jjJJjJ%kjlkK%%LJ%%jjjJjkkJJ%kkJ%jKJlkJjjj%KKLK%kjj%JLJ%
-813cjJk%LJllJKK%j%%%%%%j%jj%JjkLL%%%ll%JKK%ljJ%JLLJJJ%%jjj%jkjk%KKkk%%j%J%k%KJK
-889bLJkj%k%%jjj%J%k%j%JJjjj%J%k%JJKKJJjJL%kjj%%K%%%lmj%LLJjk%%kJKKJjkjkk%KKJJLJ
-965A%j%jjjJKJK%%KKJ%kljjjjj%Jj%JjjjjjJKLKJkm%KJ%%%%%%JJ%kk%LKKK%lklk%Jj%JJ%jk%J
-1042cKL%%KK%lkkJK%j%%kj%%JKjkj%%kjJK%jJKJLK%jjjJJJ%JjkJ%%jJKKJlljJJjljJ%%j%KJkk
-1117bjjKLJjJ%JKKJ%lklkKJj%J%%k%J%jJjkkJ%j%JKKJ%%%jjjLJ%kllJJJ%%KL%kkkJK%klk%LJ%
-1192d%jkjj%JJKK%J%%%%kjKLK%%JJ%jj%J%JJJk%JK%kl%%JJ%%j%kjJJK%kmjJLLJjK%jJ%kl%KKk
-1267Ck%%JjlJKJ%%%%jJjkkJKJj%%k%LJ%%%kkJ%%%%j%Jj%%%J%J%%%KJjjj%JLKjkkkjKKJ%%jjjJ
-1343A%J%%%jl%LKJJ%%klj%%JKKK%kmnjKLJJ%jj%%jjk%MMJj%KJkjJKLJ%%%%%jJ%ljJ%Jj%%%J%k
-1418FkjJJ%jJ%j%%JKlol%%jj%LKjlJJLKJjljJJK%kJJjj%jkjJKjljjJKJJ%jjJjjJL%jjjJKjKMJ
-1493Dkk%jkjJ%ljKK%j%jjkJK%kljKJjJJk%K%JJ%KKKJ%Jkjjkk%JJ%j%jJLK%%J%JjJLJjjkk%%%K
-1568C%%%jkJ%k%%%JKJKJJjklmmjKJkkJKJKLKJ%k%JJJKjml%J%%JLL%lmjkj%j%K%KL%kjkjLMjkJ
-1644@K%lml%jkjjjKLJ%K%jKK%jJJj%JJJkj%JkkKLLJ%%j%JJkkjKJjj%%%jjjjj%jj%KMjkjkj%%j
-1719i%%JJJJJjJKJJJJ%%j%J%k%KJJjmk%KK%jljJj%J%%JJ%jJK%ljKLKjJKjj%JKkn%%jjKJ%jjjk
-1794d%LKjk%%%JJ%JkkjLJjj%JKJjjJjmkJLLLjjj%KJjkJKJ%kjk%jl%%jJKKLJkjjjKKJJ%%J%JJ%
-1869Hk%jkkkjJLLK%Jjjk%%JJJ%kkJ%jjjkj%JJ%%J%jj%%JJJjlkj%j%%j%j%KLJjlJKKJJJjmkKKK
-1945AK%j%jjJjkj%JKJJJKJlllj%JKJJ%jKKLJ%j%jljJLKJ%kjkkj%JKjlk%%%JJJj%J%j%j%KJ%Jj
-2020BlkJ%jk%JJKMKlmlJKjl%KLKJKMJ%lkjkj%Jj%%%%JLKJjj%kk%LK%jj%%jjjJJJ%jljJj%LK%%
-2095D%JkkjjJKjl%j%KL%%lk%%%%%j%%JLK%l%%%%klJK%JJ%JLJl%JJjk%KKJjklmljjjKLLJJKKjm
-2170bljJJJ%%Jjk%%jKMjjJJJ%jJ%%jjlj%KJ%jJK%kjjJJ%jjlkKLJKLK%%%j%kkjKL%%J%J%%j%k%
-2246BKJk%J%%%kljjj%LK%j%jJLK%kklkjjJLLJJj%kk%KL%j%JjJJjk%jjkkKMLkkkKKJkkJKK%%jj
-2321BjjkjKJ%LJkjJKK%k%%%jJ%JJL%jjJKJlkjj%lk%%jJK%jjJJJJjkjlk%JLJJJ%kk%JJ%%KK%lj
-2396aKLKjkjkjJ%j%%%JKLK%jjjjkk%Jjlk%%%KJJJKK%kkj%jJKKJjnnKLJjjkj%JKJj%j%%%J%%jj
-2472f%%JJLLjmkj%JJ%j%%k%K%%JK%kkJJ%j%j%JJ%JJ%jJJjl%KK%j%jk%JJLkokJ%KLLK%%%jlj%K
-2547bKjJKjl%%Jj%KKJkj%%klkLNJjjkkJJJjj%JK%kjK%jj%KJKJJJJ%kjl%J%%%kkJKJJK%jkKKKj
-2622Fjj%jJjkjjjj%JJ%JLK%%%jkkjj%jJKKJjj%%%JJJ%jjk%JKJjjjjjKKjkJK%%J%%%kljjJJJK%
-2697B%JKJ%ll%JkjJ%JJJJJJ%jljJKJJlkjkJKJkjKKJjJ%jjkjmkJLLKJkk%K%jKK%J%kkkJLLJJ%l
-2773DmKLjjKJj%K%kkjJJ%jJJ%JJ%JJjj%lljJLKjk%jjjj%%JJKjjjk%%%JLKKkk%%%%kk%KLKJJ%J
-2848HK%%lkjlkKKKJ%j%%%%j%Jkl%%jjkkJLK%ljJK%%%KJ%J%jJK%kkkj%JL%jjlkJJ%KLJ%%J%%j%
-2923C%j%j%%KKJ%mlJ%kj%%%%KMJ%jlk%JKKK%jk%kj%jKLJjj%jjjj%JJJLJkkjKK%j%JKjlJK%%jl
-2998Alk%J%J%j%%%%%JKJjk%Kj%K%k%jkjKJ%LKmljjJKkjJKJJkjJ%JJj%LKjjK%kkjjk%JJKJkjkk
-3074g%KKKLK%lkJJjJLKjmnj%jKKJ%jkJJj%JJj%%%%%jk%LL%%J%kj%j%JkmJJjjLKlj%%JJJJK%KK
-3149D%klkjjJKKLJ%%kkjkKJ%jjjlkJKKLMKj%jj%%j%J%k%Jjj%%JJkj%%%%j%%J%%JJjjKkklmlJL
-3224iNML%kk%jk%%JNLjjJjkjKJk%KJ%JjkkkjkjJJj%KJJjmlKKKJJJjml%LKKJj%%Jj%JkkJJ%%J%
-3299a%JJj%jkJLK%JjkjJK%j%%jk%LJkkJj%jjLKjl%J%JJMLjljllkJMKj%JJJ%j%%%jjkkjj%%%%J
-3375d%KJ%jJJKKJJJ%jljJjkJjjj%JJjj%JKKJJjjjJJj%%j%JkjKK%j%JJ%%%llJK%jmn%KK%jKJkk
-3450fKKjJJjjKK%jJJjkkjKJJjm%J%JJJJKKj%KKjkj%jj%J%Jj%K%%jJ%jkl%%kjjJLKJJJjj%%jkj
-3525cjj%KKLLjj%%K%lkJlk%JJJjj%%jJJKK%lkJJJk%LKkjKJ%jkJ%jJ%ljJJJKj%KJjkkljJ%%JLK
-3601BkljJJJ%K%j%%kJJjj%%jl%KJJJK%kkjKKKJ%J%%%Jjkj%%jK%%Jjj%j%JJ%jkJjljMLJ%J%jlj
-3676aj%JKKjkj%%k%Jjl%JJj%JJ%KJkjkkJMKj%J%%JJkkj%%J%%KJ%JL%j%jkklJKJJJJ%jjKJjjJ%
-3751Ck%JKJjj%%jJjljjk%LJ%%jkjKKjlj%KLLKjj%%jJLJ%jjjjkkj%jk%LKJ%%%%JJjjj%Jjjjj%%
-3826djj%%%KJ%k%jj%%%j%%K%JJJjKLJjkjkk%jk%J%%%%%J%%%JJ%j%LK%kJK%j%JK%%%klj%JKJj%
-3902aJ%jklJMJklJKLLJj%%%j%%KJlj%%JjmjKKJK%kkKjll%%kJMLj%JjllJJJk%KJjl%KK%jklk%%
-3977a0JKK%JJj%KKjJLJll%JJ%JJJjkjJJ%kj%jJMJJjklJMJkkKJ%Jjk%jkJLKKjk%Jj%J%jj%J%jj
-4051A%jk%J%%JjjJK%%%k%KK%j%jjj%KJkkKJ%JJKJj%Jjk%JJlkj%J%j%KJ%jkj%J%JkjJK%kjKMKj
-4126DjjJjj%%%%j%JJJkjLJ%jlmk%j%JJ%jJKJJJJLJkl%K%KKklj%jjj%%%j%KJjjjj%%%J%lkKJLL
-4202@JkjJJ%j%%j%J%kk%kJLNMKjJkkkj%J%%%JJJJJ%jJ%ljjj%j%JJJllk%J%jjJ%kjKLJjkJj%%J
-4277d%J%kk%jjJ%kjJKKK%j%%Kjmk%KKKJJKLJjj%jkkj%%%%JjkjjjjLLLJ%JK%kllJLK%jKKJkj%l
-4352akKKK%%jjjJ%jJJ%jjjJ%kjk%JKKKJkkk%%j%J%%kk%J%%%jmjKNLKjjlmk%JJLJJJKJJKJ%J%k
-4427CjjJJ%kkkjLLkmk%%KMMJ%%jjjJ%%JJjll%KK%JJkkkjkJKJj%%JJJ%%Jjk%jjjKKK%%JLJ%J%%
-4503Hjkk%kkj%%LJ%L%lj%%%jj%%Jkj%jkJKL%k%%%jJKLJjj%ljjkkJJJkljK%%%%%%JLKJ%JJjkJJ
-4578@JJjnkJ%%%LLjkjj%kj%%KMMK%lmjjjj%KJJLKkljkk%KJ%%jjKKKKj%J%J%j%JJJkkjJK%%j%%
-4653B%jj%JKLLLjmjjllkJLJk%%lkJKJKJjjjJKj%JJ%%jjKL%lk%K%%jlkk%%KJJ%ljJJJJJ%j%k%K
-4728ajkLN%j%J%k%jjjJJ%JkljKKJJKKJkj%JjkkjKLKKKJjjkkkjKKJjjkmjJLKKJJjjjKJ%jjjk%J
-4804D%jlmjJ%j%KLJjj%j%JlkLL%JJJ%%jk%%%%JKJjjkk%%JKK%jjj%%jkjKKjlkKJ%kkKLJkjjj%J
-4879e%%LLj%JJklj%J%KKjk%KK%kJjl%JJjk%JjjJKLKln%MK%j%j%LLJJjmjKKJjkjJJjJL%jjkkk%
-4954a%JJKJ%kkjJ%JNKlnjJ%jk%%%JjjK%%Kjkj%JjkKK%JJK%JKkmkj%LLjjKMJkj%%jk%%kj%%%J%
-5030aj%jkJNM%JLJlkkjj%%%%%J%j%JJ%kl%KL%j%j%JJjkj%jjJK%jjk%J%jj%jj%JMLKjkj%kj%%j
-5105eJLJkj%kj%KJ%%jjj%%KLJj%J%%kj%KJ%jJLJkjJJJJjlkkj%JKJ%JkkKJ%JJkj%JJ%j%J%j%JL
-5180D%jj%KJ%lkj%Jk%KL%%KKkkk%JJkkjJJKkljJKK%ljJKkjKKjkjjkjKLLJj%J%kkjJ%%%jJ%j%j
-5255dl%JJkkKLKJ%jj%J%j%%%JjjKK%%%k%LjlJK%JKK%kk%jjjjljKMJJ%%JJ%k%J%%j%J%%%JL%lk
-5331A%j%%%JJJK%JJ%%JJlkkjKJJjml%JL%jjKJJ%jkk%%%JNLknlkKKKJkl%JJjjJKKKKLJj%%%klj
-5406CJLj%LNLkmlkKKjkj%jk%%JKjml%MKJj%%jJLK%%K%J%kkj%%kl%%JJJK%%Kjl%jl%LJj%JK%%%
-5481Gjkj%JjJ%jJJj%Jj%%lkK%J%jjjjj%%K%%jjj%K%ljJ%JJlkK%%JK%JJK%%%JJ%ljJ%JJ%JM%kj
-5556DkjKJjjjl%jkJK%jkjKJJK%kjjkKKjjjJKJ%%%%lk%K%%%JJkjKKJj%j%%%kjj%JJJ%jKJ%J%%L
-5632CJkl%%jjJ%jjKKK%klj%%jj%KJJ%jJ%%%JK%%JJklj%%JJ%klkJMMjj%%%%k%%J%%kkj%LJjJL%
-5707@jjj%JJjj%JK%JKjlljKLKLJjjjk%JjkJ%%KLJkklkkl%JKKJjj%%K%%%JJj%%jl%JJ%%%%%LKj
-5782AjKJjjjjjLK%kjkjJLMJ%%J%%jj%%%kj%%kjjJKjkjjjj%%jJKJJLjk%jkjJKKJ%lkjjJLJ%%%K
-5857@J%jjkJ%%%kjJKJJjJL%kKKjl%Ljjkj%jkjJKMKJ%kkkJJJKJ%KK%jJjjkjJKJ%%jKKjkjJJjlj
-5933DJJ%kkjkj%KJJKJjkkj%K%kj%%Jklj%KKK%J%JJ%kjjjjKJJJkj%%%%%%%%%JJJjJK%k%%%jjkl
-6008f%JLKJJkkLKj%Jkjjj%jJMKjkk%jJKJ%jjjj%KKJ%J%%%KklJKjj%LM%ljj%Jj%KLjj%JJj%jkk
-6083CJKLJjk%JK%%j%%JjjJjlk%jjJkjK%klJJ%%LLj%K%k%kj%KJ%jj%JJ%%%kjJ%%JjjJJ%JJJjkJ
-6159CK%ljKKJl%JklJK%jjkKK%kJKKJjkljj%KJKJJ%%jjJJ%JJjj%%jJKkmkj%%j%JJlJLj%JkkJKK
-6234AJJLK%%jkjj%JJj%%jJJ%kkjjjJK%jj%K%jJKJ%jkjJLK%jjj%J%kJKKK%kj%JjlkJjkJJjJMJj
-6309E%jkjkljjJK%klj%JJj%%%JjklJKJjjJJj%K%JJjk%kj%JLMJ%%JKK%%%KK%J%lljjjJJ%%KLJ%
-6384FJKJkmlkjJJ%jjKJJ%JJ%kjJklkjjJjKLKJJJjjkjJJ%kk%KJK%jjjJJ%JKLJkk%jJ%%%%jJjlk
-6460cKKJ%jk%J%%Kjl%J%k%LK%%%jj%K%j%jl%KJ%JKj%%jJJjj%jjJ%jJ%klkJJJKjj%J%J%%J%%%%
-6535ajjJ%%jkjKKK%jJJJjk%J%k%KLJKKllkkJLKjkk%%jj%jjkjLMMJ%%jkkj%%%J%JLjl%KKJklk%
-6610cJKKK%kj%J%%jjj%KK%%%j%jj%JJJJjk%%j%%%KK%kklj%jJJ%%JJ%jJK%jjkjJKK%jj%JkjKJk
-6685bjjlkk
-6690a1 $$ checkpoint
##END=
##TITLE=Peak list
##JCAMP-DX=5.01
##ORIGIN=UNKNOWN
##OWNER=UNKNOWN
##DATA TYPE=NMR PEAK TABLE
##DATA CLASS=PEAK TABLE
##BLOCK_ID=3
##CROSS REFERENCE=NMR SPECTRUM:BLOCK_ID=2
##DATE=22/03/03
##TIME=15:04:23
##TEMPERATURE=25
##LONG DATE=2022/03/03 15:04:23 
##.OBSERVE FREQUENCY=500
##.OBSERVE NUCLEUS=1H
##.SOLVENT NAME=H2O
##NPOINTS=1
##XUNITS=PPM
##YUNITS=ARBITRARY UNITS
##PEAK TABLE=(XY..XY)
(8.44, 48591580000.0)
##END=
##TITLE=Assignments
##JCAMP-DX=5.01
##ORIGIN=UNKNOWN
##OWNER=UNKNOWN
##DATA TYPE=NMR PEAK ASSIGNMENTS
##DATA CLASS=PEAK ASSIGNMENTS
##BLOCK_ID=4
##CROSS REFERENCE=STRUCTURE:BLOCK_ID=1
##DATE=22/03/03
##TIME=15:04:23
##SAMPLE DESCRIPTION=Formic acid
##TEMPERATURE=25
##LONG DATE=2022/03/03 15:04:23 
##SOURCE REFERENCE=HMDB0000142
##.OBSERVE FREQUENCY=500
##.OBSERVE NUCLEUS=1H
##.SOLVENT NAME=H2O
##NPOINTS=1
##XUNITS=PPM
##PEAK ASSIGNMENTS=(XMA)
(8.44, <s>, <4>)
##END=
##END=
