##TITLE=HMDB0000161, Experimental spectrum with assignments
##JCAMP-DX=4.24
##ORIGIN=UNKNOWN
##OWNER=UNKNOWN
##DATA TYPE=LINK
##DATE=22/03/03
##TIME=15:04:29
##LONG DATE=2022/03/03 15:04:29 
##TITLE=L-alanine
##JCAMP-CS=3.7
##ORIGIN=UNKNOWN
##OWNER=UNKNOWN
##DATE=22/03/03
##TIME=15:04:29
##BLOCK_ID=1
##CROSS REFERENCE=NMR PEAK ASSIGNMENTS:BLOCK_ID=4
##LONG DATE=2022/03/03 15:04:29 
##MOLFORM=C3 H7 N O2
##ATOMLIST=
1 C 0
2 C 0
3 N 0
4 C 0
5 O 0
6 O 0
7 H 0
8 H 0
9 H 0
10 H 0
11 H 0
12 H 0
13 H 0
##BONDLIST=
1 2 S
2 3 S
2 4 S
4 5 D
4 6 S
1 7 S
1 8 S
1 9 S
2 10 S
3 11 S
3 12 S
6 13 S
##STEREOCENTER=
2 M 0
##$MOLFILE=
     RDKit          3D

 13 12  0  0  0  0  0  0  0  0999 V2000
   -1.0396    0.7462    0.6492 C   0  0  0  0  0  0  0  0  0  0  0  0
   -0.1677    0.1568   -0.4395 C   0  0  2  0  0  0  0  0  0  0  0  0
   -0.8196   -0.9720   -0.9837 N   0  0  0  0  0  0  0  0  0  0  0  0
    1.1505   -0.2386    0.0721 C   0  0  0  0  0  0  0  0  0  0  0  0
    1.5452   -1.4211   -0.0088 O   0  0  0  0  0  0  0  0  0  0  0  0
    2.0024    0.6853    0.6622 O   0  0  0  0  0  0  0  0  0  0  0  0
   -0.4267    0.8117    1.5658 H   0  0  0  0  0  0  0  0  0  0  0  0
   -1.4802    1.7104    0.3400 H   0  0  0  0  0  0  0  0  0  0  0  0
   -1.8790    0.0382    0.9061 H   0  0  0  0  0  0  0  0  0  0  0  0
   -0.0520    0.9431   -1.2254 H   0  0  0  0  0  0  0  0  0  0  0  0
   -1.4607   -1.4857   -0.3955 H   0  0  0  0  0  0  0  0  0  0  0  0
   -0.3644   -1.4532   -1.7515 H   0  0  0  0  0  0  0  0  0  0  0  0
    2.9919    0.4790    0.6091 H   0  0  0  0  0  0  0  0  0  0  0  0
  1  2  1  0
  2  3  1  0
  2  4  1  0
  4  5  2  0
  4  6  1  0
  1  7  1  0
  1  8  1  0
  1  9  1  0
  2 10  1  6
  3 11  1  0
  3 12  1  0
  6 13  1  0
M  END

##END=
##TITLE=Spectrum
##JCAMP-DX=5.01
##ORIGIN=UNKNOWN
##OWNER=UNKNOWN
##DATA TYPE=NMR SPECTRUM
##BLOCK_ID=2
##CROSS REFERENCE=NMR PEAK TABLE:BLOCK_ID=3
##DATE=22/03/03
##TIME=15:04:29
##TEMPERATURE=25
##LONG DATE=2022/03/03 15:04:29 
##.OBSERVE FREQUENCY=500
##.OBSERVE NUCLEUS=1H
##.SOLVENT NAME=H2O
##.SHIFT REFERENCE=INTERNAL,DSS,53723.00,0
##XUNITS=PPM
##FIRSTX=12.30818
##LASTX=-2.706183
##MINX=-2.706183
##MAXX=12.30818
##XFACTOR=0.0002200000000005531
##NPOINTS=65536
##YUNITS=ARBITRARY UNITS
##FIRSTY=1337035.0
##LASTY=1115694.0
##MINY=-489403600.0
##MAXY=171365400000.0
##YFACTOR=5229816.58375805
##XYDATA=(X++(Y..Y)), XYDATA $$ DIF
55946@%%%%%%%%%%%%%%%%%j%J%%%%%%%%%%%%%%%%%%%%%%%%%%%%%%%%%%%%%%%%%%%%%%%%%%%%%%
55869@%%%%%%%%j%%%J%%%%J%j%%%%%%%%%%%%%%%%%%%%%%%%%%%%%%%%%%%%%%%%%%%%%%jJ%%%%j%
55792a%J%%%%%%%%%%%%%%%%%%%%%%%%%%%%%%%%%%%%%%%%%%%%%%%%%%%%%%%%%%%%%%%%%%%%%%%%
55715@%%%%%%%%%%%%%%%%%%%%%%%%%%%%%%%%%%%%%%%%%%%%%%%%%%%%%Jj%%%%%%%%%%%%%%%%%%%
55638@%%%%%%%%%%%%%%%%%%%%%%%%%%%%%%j%J%%%%%%%%%%%%%%%%%%%%%%%%%%%%%%%%%%%%%%%jJ
55561@%%%j%%%J%%%%%J%j%%%%%%%%%%%%%%%%%%%%%%%%%%%%%%%%%%%%%%%%%%%%%%%%%%%%J%j%%%
55484@%%%%%%%%%%%%%%%%J%j%%%%%%%%%%%%%%j%%J%%%%%%%%%%%%%%%%%%%%%%%%%%%%%%%%%%%%%
55407@%%%%%%%%%%%%%%%%%%%%%%%%%%%%%%%%%%%%%%%%%%%%%%%%j%%%J%%%%%%%%%%%J%%%%j%%%%
55330@%%%%%%%%%%%%%%%%%%%%%%%%%%%%%%%%%%%%%%%%%%%%%%%%%%%%%%%%%%%%%%%%%%%%%%%%%%
55253@%%%%%%%%%%%%%%%%%%%%%%%%%%%%%%%%%%%%%%%%%%%%%%%%%j%J%%%%%%%%%%%%%%%%%%%%%%
55176@%%%%%%%%%%%%%%%%%%%%%%%%%%%%%%%%%%%%%%%%%%%%%%%%%%%%%j%%J%%%%%%%%%%%%%%%%%
55099@%%%%%%%%%%%%%%%%%%%%%%%%%%%%%%%%%%%%%%%%%%%%%%%%%%j%%%%J%%%%%%%%%%%%%%%%%%
55022@%%%%%%%%%%%%%%%%%%%%%%%J%%%%%%j%%%%%%%%%%%%%%%%%%%%%%%%%%%%%%%%%%%%%%%%%%%
54944@%%%%%%%%%%%%%%%%%%%%%%%%%%%%%%%%%%%%%%%%%%%%%%%%%%%%%%%%%%%%%%%%%%%%%%%%%%
54867@%%%%%%%%%%%%%%%%%%%%%%%%%%%%%%%%%%%%%%%%%%%%%%%%%%%%%%%%%%%%%%%%%%%%%%%%%%
54790@%%%%%%%%%%%%J%j%%%%%%%%%%%%%%%%%%%%%%%%%%%%%%%%%%%%%%%%%%%%%%%%%%%%%%%%%%%
54713@%%%%%%%%%%%%%%%%%%%%Jj%%%%%%%%%%%%%%%%%%%%%%%%%%%%%%%%%%%%%%J%%%j%%%%%%%%%
54636@%%%%%%%%%%%%%%%%%%J%%%j%%%%%%%%%%%%%%%%%%%%%%%%%%%%%%%%%%%%%%%%%%%%%%%%%%%
54559@%%%%%Jj%%%%%%%%%%%%%%%%%%%%%%%%%%%%%%%%%%%%%%%%%%%%%%%%%%%%j%J%%%%%%%%%%%%
54482@%%%%%%%%%%%jJ%%%%%%%%%%%%%%%%%%%%%%%%%%%%%%%%%%%%%%%%%%%%%%%%%%%%%%%%%%%%%
54405@%%%%%%%%%%%%%%%%%%%%%%%%%%%%%%%%%%%%%%%%%%%%%%%%%%%%%%%%%%%%%%%%%%%%%%%%%%
54328@%%%%%%%%j%J%%%%%%%%%J%j%%%%%%%%%%%%%%%%%%%%%%%%%%%%%%%%%%%%%%%%%%%%%%%%%%%
54251@%%%%%%%%%%%%%%%%%%%%%%%%%%%%%%%%%%%%%%%%%%%%%%%%%%%%%%%%%%%%%%%%%%%%%%%%%%
54174@%%%%%%%%%%%%%%%%%%%%%%%%%%%%%%%%%%%%%%%%%%%%%%%%%%%%%%%%%%J%%%%%j%%%%%%%%%
54097@%%%%%%%J%%%%j%%%%%%%%%%%%J%%j%%%%%%%%%%%%%%%%%%%%%%%%%%%%%%%%%%%%%%%%%%%%%
54020@%%%%%%%%%%%%%Jj%%%%%%%%%%%%%%%%%%%%%%%%%%%Jj%%%%%%%%%%%%%%%%%%%%%%%%%%%%%%
53943@%%%%%%%%%%%%%%%%%%%%%%%%%%%%%%%%%%%%%%%%%J%%%j%%%%%%%%%%%%%%%%%%%%%%%%%%%%
53866@%%%j%%%J%%%%%%%%%%%%%%%%%%%J%%%%%j%%J%%%%%j%%%%%%%%%%%%%%%%%j%%J%%%%%%%%%%
53789@%%%%%%%%%%%%%%%j%J%%%%%%%%%%j%%%%%J%%%%%%%%%%%%%%J%%j%%%%%%%%%%%%%%%%%%%%%
53711@%%%%%%%%%%%%%%%%%%%%%%%%%%%%%%%%%%%%%%%%%%%%%%%%%%%%%%%%%%%%%%%%%%%%%%%%%%
53634@%%%%%%%%%%%%%%%%%%%%%%%%%%%%%%%%%%%%%%j%J%%%%%%%%%%%%%%%%%%%%%%%%%%%%%%%%%
53557@%%%%%%%%%%%%%%%%%%%%%%%%%%%%%%%%%%%%%%%%%%%%%%%%%%%%%%%%%%%%%%%%%%%%%%%%%%
53480@%%%%%%%%%%%%%%%%J%%j%%%%%%%%%%%%%%%Jj%%%%%%%%%%%%%%%%%%%%%%%%%%%%%%%%%%%%%
53403@%%%J%%%%%j%%%%%%%%%%%%%%j%%J%%%%%%%%%%%%%%%%%%%%%%%%%%%%%%%%%%%j%%%%J%%J%%
53326Aj%%%%J%%j%%%%%%%%%%%%%%%%%%%%%%%%%%%%%%%%%%%%%%J%%%%%%j%%%%%%%%%%%%%%%%%%%
53249@%%%%%%%%%%%%%%%%%%%%%j%%%J%%%%%%%%%%%%jJ%%%%%%%%%%%%J%%j%%%J%%j%%%%%%%%%%%
53172@%%%%%%%%%%%%%J%j%%%%%%%%%j%%%%%J%%%%%%%%%%%%%Jj%%%%%%%%%%%%%%%%%%%%%%%%%%%
53095@%%%%%%%%%%%%%%%%%%%%%%%%%%%%%%%%%%%%%%j%J%%%%%%%%%%%%%%%%%%%%%%%%%%%%%%%%%
53018@%%%%%%%%%%%%%%%%j%%J%%%%%%%%%%%%%%%%%%%%%%%%%%%%%%%%%%j%J%%%%%%%%%j%%%J%%%
52941@j%J%%%%%%%%%%%%%%%%%%%%%%%%%%%%%%%%%%%%%%%%%%%%%%%%%%%%%%%%%%%%%%%%%J%%%j%
52864@%%%%%%%%%%%%%%%%%%%%%%%%%%%%%%%%%%%%%%%%%%%%%%%%%%%%%%%%%%%%%%%%%%%%%%%%%%
52787@%%%%%%%%%%%%%%%%%%%%%%%%%%%%%%%jJ%%%%%%%%%%%%j%J%%%%%%%J%%%%%j%%%%%%%%%%%%
52710@%%%%%%%%%%%%%%%%%%%%%%%%%%%%%%%J%%%%%j%%%%%%%%%%%%%%%%%%%%%%%%%%%%%%%%%%%%
52633@%%%%%%%%%%%%%%%%%%%%%%%%%%%%%%%%%%%%%%j%%%%%J%%%%%%%j%%%J%%%%%%%%%%%%%%%%%
52556@%%%%%%%%%%%%%%%%%%%%%%%%%%%%%%%%%j%J%%%%%%%%%%%%%%%%%%%%%%%J%%j%%%%%%%%%%%
52478@%%%%%%%%%%%%%%%%%%%%%%%%%%%%%%%%%%%%%%%%%%%%%%%%%%%%%%%%%%%%%%%%%%%%%%Jj%%
52401@%%%%%%%%%%%%%%%%%%%%%%%%%%%%%%%%j%%%J%%%%%%%%%%%%%%%%%%%%%%%%%%%%%%%%%%%%%
52324@%%%%%%%%%%%%%%%%%%%%%%%%%%%j%%%%%J%%%%%%%%%%%%%%%%%%%%%%%%%%%%%%%%%%%%j%%J
52247@%%%%%%%%%%%%%%%%%%%%%%%%%%%%%%%%Jj%%%%%%%%%%%%%%%%%%%%%%%%%%%%%%%%%%%%%%%%
52170@%%%%%%%%%%%%%%%%%%%%%%%%%%%%%J%%%j%%%%j%J%j%%%%%%%%%J%%%%%%%%%%%%%%%%%%%%%
52093@%%%%%%%%%%%%%%%%%%%%%%%%%%%%%%%%%%%%%%%%%%%%%%%%%%%%%%jJ%%%%%%%%%%%%%%%%Jj
52016@%%%%%%%%%%%%%%%%%%%%%%%%%%%%%%J%%%j%%%%%%%%%%%%%%%%%%%%%%%%%%%%%%%%%%%%%%%
51939@%%%%%%%%%%%%%%%%J%%%j%%%J%j%%%%%%%%%%%%%%%%%%%%%%%%%%%%%%%%%%%%%%%%%%%j%J%
51862@%%%%%%%%%%%%%%%%%%%%%%%%%%%%%%%%%%%%%%%%%%%%%%%%%%%%%%%%%%%%%%%%%%%%%%%%%%
51785@%%%%%%%%%%%%%%%%%%%%%%%%%%%%%%%%%%%%%%%%%%%%%%%j%J%%%%J%j%%%%%%%%%%%J%%j%%
51708@%%%%%%%%%%%%%%%%%%%%%%%%%%%%%%%%%%%%%%%%%%%%%%%%%%%%%%%%%%%%%%%%%%%%%%%%%%
51631@%%%%%%%%%%%%%%%%%%%%%%%%%%%%%%Jj%%%%%%%%%%%J%%%j%%J%%%%j%%%%%%%%%%%%%%%%%%
51554@%%%%%%%%%%%%%%%%%%%%%%%%%%%%%%%%%%%%%%%%J%%j%%%%%%%%%%%%%%%%%%%%%%%%%%%%%%
51477@%%%%%j%%J%%%%%%%%%%%%%%%%%%%%%Jj%%%jJ%%%%%%%%%%%%%%%%%%%%%%%%%%%%%%%%%%%%j
51400a%%%J%%%%%%%%%%%%%%%%%%%%%%%%%%%%%%%%%%%%%%%%%%%%%%%%%%%%%%%%%%%%%%%%%%%%%%
51323@%%%%%%%%jJ%%%%%%%%%%%%J%%j%%%%%%%%%%%%%%%%%%%%%%%%%%%%%%%%%%%%%%%%%%%%%%%%
51245@%%%%%%%%%jJ%%%%%%%%%%%%%%%%%%%%%%%%%%%%%%%%%%%%%%%%%%%%%%%%%%%J%j%%%%%%%%%
51168@%%%%%%%%%%%%%%%%%%%%%%%%%%%%%%%%%%%%%%%%%%%%%%%%%%%%%%%%%%%%%%%%%%%%%%%%%%
51091@J%j%%%%%%%%%%%%%%%%%%%%%%%%%%%%%%%%%%%%%%%%%%%%%%%%%%%%%%%%%%%%%%%%%%%%%%%
51014@%%%%%%%%%%%%%%%%%%%%J%j%%%%%%%%j%J%%%%%%%%%%%%%%%%%%%%%%%%%%%%%%%%%%%%%%%%
50937@%%%%%%%%%%%%%%%%%%%%%%%%%%%%%%%%%%%%%jJ%%%%%%%%%%%%%%%%%%%%%%%%%%%%%%%%%%%
50860@%%%%%%%%%%%%%%%%%%%%%%%%%%%%%%%%%%%%%%%%%%%%%%%%%%%%%%%%%%%%%%%%%%%%%%%%%%
50783@%%%%%%%%%%%%%%%%%%%%%j%J%%%%%%%%%%%%%%%%%%%%%%%%%%%%%%%%%%%%%%%%%%%%%%%%%%
50706@%%%%%%%%%%%%%%%%%%%%%%%%%%%%%%%%%%J%%%j%%%%%%%%%%%%%%%%%%%%%%%%%%%%%%%%%%%
50629@%%%%%%%%%%%%%%%%%%%%%%%%%%%%%%%%%%%%%%%%%%%%%%%%%%%%%%%%%%%%%%%%%%%%%%%%%%
50552@%%j%%%%J%%%%%%%%%%%%%%%%%%%%%%%%%%%%%%%%%%%%%%%%%%jJ%%%%%%%%%%%%%%%%%%%%%%
50475@%%%%%%%%%%%j%J%%%%%%%%%%%%%%%%%%%%%%%%%%%%%%%%%%%%%%%%%%%%%%%%%%%%%%%%%%%%
50398@%%%%%%%%%%%%%%%%%%%%%%%%Jj%%%%%%%%%%j%%J%%%%%%%%%%%%%%%%%%%%%%%%%%%%%%%%%%
50321@%%%%%%%%%%J%%j%%%%%%%%%%%%%%%%%%%%%%%%%%%%%%%%%%%%J%%%j%%%%%%%%%%%%%%%%%%%
50244@%%%%%%%%%%%%%%%%%%J%%%j%%%%%%%%%%%%%%%%%%Jj%%%%%%%%%%%%%%%%%%%%%%%%%%%%%%%
50167@%%%%%%%%%%%%%%%%%%%%jJ%%%%%%%%%%%%%%%%%%%%%%%%%%%%%%%%%%%%%%%%%%%%jJ%%%%%%
50090@%%%%%%%%%%%%%%%%%%%%%%%%%%%%%%%%%%%%%%%J%j%%%%%%%%%%%%%%%%%%%%%%%%%%%%%j%%
50012a%J%%%%%%%%%%%%%%%%%%%%%%%%%%%%%%%%%%%%%%%%%%%%%%%%%%%%%%%%%%%%%%%%%%%%%%%%
49935@%%%%%%%%%%%%%%%%%%%%%%%%%%%%%%%%%%%%%%%%%%%%%%%%%%%%%%%Jj%%%%%%%%%%%%%%%%%
49858@%%%%%%%%%%%%%%%%%%%%%%%%%%%%%%%%%%%%%%%%%%%%%%%%%%%%%%%%%%%%%%%%%%%%%%%%%%
49781@%%%%%%%%%%%%%%%%%%%%%%%%%%%%%%%%%%%%%%%%%%%%%%%%%%%j%%J%%%%%%%%%%%%%%J%%%j
49704@%%%%%%%%%%%%%%%%%%%%%%%%%%%%%%%%%%%%%%%%%%%%%%%%%%%%%%%%%%%%%%%%%%%%%%%%%%
49627@%%%%%%%%%%%%%%%%%%%%%%%%%%%%%%%j%%J%%%J%%j%%%%%%%%%%%%%%%%%%%%%%%%%%%%%%%%
49550@%%%%%%%%%%%%%%%%%%%%%%%%%%%%%%%%%%%%%%%%%%%%%%%%%%%%%j%%%J%%%%%%%%%j%J%%%%
49473@%%%%%%%%%%%%%%%%%%%%%%%%%%%%%%%%%%%%%%%%%%%%%%%%%%%%%%%%%%%%%%%%%%%%%%%%%%
49396@%%%%Jj%%%%%%%%%%%%%%%%%%%%%%%%%%%%%%%%%%%%%%%%%%%%%%%%%%%%%jJ%%%%%%%%%%%%%
49319@%%%%%%%%%%%%%%%%%%%%%%%%%%%%%%%%%%%%%%%%%%%%%%%%%%%%%%%%%%%%%%%%%%jJ%%%%%%
49242@%%%%%%%%%%%%%%%%%%%%%%%%%%%%%%%%%%%%%%%%%%%%%%%%%%%%%%%%%%%%%%%%%%%%%%J%j%
49165@%%%%%%%%%%%%%%%%%%%%%%%%%%%%%%%%%%%%%%%%%%%%%%%%%%%%%%%%%%%%%%%%%%%%%%%%%j
49088a%%J%%%%%%%%%%%%%%%%%%%%%%%%%%%%%%%%%%%%%%%J%j%%%%%%%%%%%%%%%%%%%%%%%%%%%%%
49011@%%%%%%%%%%%%%%%%%Jj%%%%%%%%%%j%J%%%%%%%%%%%%%%%%%%%%%%%%%%%%%%%%%%%%%%%%%%
48934@%%%%%%%%%%%%%%%J%j%%%%%%%J%j%%%%%%%%%%%%%%%%%%%%%%%%%%J%j%%J%%%j%%%%%%%%%%
48857@%%%%%%%%%%%%%%%%%%J%%j%%%%%%%%%%%%%%%%%%%%%%%%%%%%%%%%%%%%%%%%%%%j%%J%%%%%
48779@%j%J%%%%%%%%%%j%J%%%%%%%%%%%%%%%%%%%%%%%%J%j%%%%%%%%%%%%%%%%%%%%%%%%%%%%%%
48702@%%%%%%%%%%%%%%%%%%%%%%%%%%%%%%%%%%%%%%%%%%%%%%%%%%%%%%%%%%%%%%%%%%%Jj%%%%%
48625@%%%%%%%%%%%%%%%%%%%%%J%j%%%%%%%%%%%%%%%%%%%%%%%%%%%%%%%%%%%%%%%%%%%%%%%%%%
48548@%%J%%%j%%%%%%%%%%%%%%%%%%%%%%%%%%%%%%%%%%%%%%%%%%%%%%%%%%%%%%%%%%%%%%%%%%%
48471@%%%j%%J%%%%%%%%%%%%%%%%%%%%%%%%%%%%%%%%%%%%%%%%%%%%%%%%%%%%%%%%%%%%%%%%%%%
48394@%%%%%%%%%%%%%%%%%%%%%%%%J%j%%%%%%%%%%%%%%%%%%%%%%%%%%%%%%%%%%%%%%%%%%%%%%%
48317@%%%%%%%%%%%%%%%%%%%%%%%%%%%%%%%%%%%%%%%%%%%%%j%%J%%%%%%%%%%%%%%%%%%%%%%%%%
48240@%%%J%%%%%%j%%%%%%%%%%%J%%j%%%J%j%%%%%%%%%%%%%%j%J%%%%%%%%%%%%%%%%%%%%%%%%%
48163@%%%%%%%%%%%%%%%%%%%%%%%%%%%j%%%%J%%%%%%%%%%%%%%%%%%%%%%%%%%%%%%%%%%%%%%%%%
48086@%%%%%%%%%%%%%%%%%%%%%%%%%%%%%%%%%%%%%%%%%%%%%%%%%%%%%%%%%Jj%%%%%%%%%%%%%%%
48009@%%%%%%%%%%%%%%%%%%%%%%%%%%%%%%%%%%%%%%%%%%%%%%%%%%%%%%%%%%J%%j%%%%%%%%%%%%
47932@%%%%%%%%%%%%%%%%%%%%%%%%%%%%%%%%%%%%%%%%%%%%%%%%%%%%%%%%%%%%%j%J%%%%%%%%%%
47855@%%%%%%%%%%%%%%%%%%%%%%%%%%%%%%%%%%%%%%%%%%%%%%%%%%%%%%%%%%%%%%%%%%%%%%%%%%
47778@%%j%%J%%%%%%%%%%%%%%%%%%%%%%%%%jJ%%%%%%j%%J%%%%%%%%%%%%%%%%%%%%%Jj%%%%%%%%
47701@%%%%%%%%%%%%%%%%%%%%%%%%%%%%%%%%%%%%%%%%%%%%%%%%%%%%%%%%%%%%%%%%%%%%%%%%%%
47624@%%%%%%%%%%%%%%%%%%%%%%%%%%%%%%%%%%%%%%%%%%%%%%%%%%%%%%%%%%%%%%%%%%%%%%%%%%
47546@%%%%%%%%%%%%%%%%%%%%%%%%%%%%%%%%%%%%%%%%%%%%%%%%%J%%j%%%%%J%j%%%%%%%%%%J%%
47469Aj%%%%%%%%%%%%%%%%%%%%j%%J%%%%%%%%%%%%%%%%%%%%%%%%%%%%%%%%%%%%%%jJ%%%%%%%%%
47392@%%%%%%%%%%%j%%J%j%%J%%%%%%%%%%%%%%%%%%%%%%%%%%%%%%%%%%%%%%%%%%%%%%%%%%%%%%
47315@%%%%%%%%%%%%%%%%%%%%%%%%%%%%%%%%%%%%%%%%%%%%%%%%%%%%%%%%%%%%%%%%%%%%%%%%%%
47238@%%%%%%%%%%%%%%%%%%%%%%%%%%%%%%%%%%%%%%%%%%%%%%%%%%%%%%%%%%%%%%%%%%%%%%%%%%
47161@%%%%%%%%%%%%%%%%%%%%%%%%%%%%%%%%%%%%%%%%%%%%%%%%%%%%%%%%%%%%%%%%%%%%%%%%%%
47084@%%%%%%%%%%%%%%%%%%%%%%%%%%%%%%%%%%%%%%%%%%%%%%%%%%%%%%%%%%j%J%%%%%%%%%%Jj%
47007@%%%%%%%%%%%%%%%%%%%%%%%%%%%%%%%%%%%%%%%%%%%%%%%%%j%%J%%%%%%%%%%%%%%%%%%%%%
46930@%%%%%%%%%%%%%%%%%%%%%%%%%%%%%%%%%%%%%%%%%%%%%%%%%%%%%%%%%%%%%%%%%%%%%%%%%%
46853@%%%%%%%%%%%%%%%%%%%%%%%%%J%j%%%%%%%%%%%%j%%J%%%%%%%%%%%%%%%%%%%%%%%%%%%%%%
46776@%%%%%%%%%%%%%%%%%%%%%%%%%%%%%%%%%%%%%%%%%%%%%%%%%%%%%%%%%%%%%%%%%%%%%%%%%%
46699@%%%%%%%%%%%jJ%%%%%%%%%%%%%%%%%%%%%%%%%%%%%%%%%%%%%%%%%%%%%%%%%%%%%%%%%%%%%
46622@%%%%%%%%%%%%%j%%J%%%%%%%%%%%%%%%%%%%%%%%j%%%%J%%%j%J%%%%%%%%%%%%%%%%%%%%%%
46545@%%%%%%%%%%%%%%%%%%%%%%%%%%%%%%%%%%%%%%%%%%%%%%%%%%%%jJ%%%%%%%%%%%%%%%%%%%%
46468@%%%%%%%%%%J%j%%%%%%%%%%%%%%%%%%%%%%%%%%%%%%%%%%%%j%J%%%%%%%%%%%%%%%%%%%%%%
46391@%%%%%%%%J%%j%%%%%%%%%%%%%%%%%%%%Jj%%%%%%%%%%%%%%%%%%%%%%%%%%%%%%%%%%%%%%%%
46313@%%%%%%%%%%%%%%%%%%%%%%%%%%%%%%%%%%%%%%%%%%%%%%%%%%%%%%%%%%%%%%%%%%%%%%%%%%
46236@%%%%%%%%%%%%%%%%%%%%%%%%%%%%%%%%j%%%J%%%%%%%%%%%%%%%%%%%%%%%%%%%%%%%%%%%%%
46159@%%%%%%%%J%j%%%%%%%%%%%%%%%%%%J%%%%j%%%%%%%%%%%%%%%%%%%%%%%%%%%%%%%%%%%%%%%
46082@%%%%%%%%%%%%%%%%%%%%%%%%%%%%%%%%%%%%%%%%%%%%%%%%%%%%%%%%%%%%%%%%%%%%%%%%%%
46005@%%%%%%%%%%%%%%%j%%%J%%%%%%%%%%jJ%%%%%%%%%%%%%%J%j%%%%%%%%%%%%Jj%%%%%%%%%%%
45928@%%%%%%%%%%%%%%%%%%%%%%%%%%%%%%%%%%%%%%%%%%%%%%%%%%%%%%%j%J%%%%%%%%%%%%%%%%
45851@%%%%%%%%%%%%%%%%%%%%%%%%%%%%%%%%%%%%%%%%%%%%%%%%%%%%%%%%%%%%%%%%%%%%%%%%%%
45774@%%%%J%%j%%%%%%%%%%%%%%%%%%%%%%%%J%j%%%%%%%%%%%%%%%%%%%%%%%%%%%%%%%%%%%%%%%
45697@%%%%%%%%%%%%%%%%J%%j%%%%%%%%%%%%%%%%%%%%%%%%%%%%%%j%%J%%%%%%%%%%%%%%%%%%%%
45620@%%%%%%%%%%%%%%Jj%%%%%%%%%%%%%%%%%%%%%%%%%%%%%%%%%%%%%%%%%%%%%%%%%%%%%%%%%%
45543@%%%%%%%%%%%%%j%J%%%%%%%%%%%%%%%%%%%%%%%%%%%%%%%%%%%%%%%%%%%%%%%%%%%%%%%%%%
45466@%%%%%%%%%%%%%%%%%%%%%%%%%%%%%%%%%%%%%j%J%%%%%%%%J%%j%%%%%%j%%J%%%%%%%%%%%%
45389@%jJ%%%%%%%%%%%%%%%%%%%%%%%%%%%%%%%%%%%%%%%%%%%%%%%%%%%%%%%%%%%%%%%%%%%%%%%
45312@%%%%%%%%%%%%%%%%%%%%%%%%%%jJ%%%%%%%%%%%%%j%%J%%%%%%%%%%%%%%%%%%%%%%%%%%%%%
45235@%%%%%%%%J%j%%%%%%%%%%%%%%%%%%%%%%%%%%%%%%%%%%%%%%%%%%%%%%%%%%%%%%%%%%%%%%%
45158@%%%%%%j%J%%%%%%%%%%%%%%%%%%%%%%%%%%%%%%%%%%%%%%%%%%%%%%%%%%%%%%%%%%%j%J%%%
45080@%%%%%%%%%%%%%%%%%%%%%%%%%j%%%J%%%%%%%%%%%%%%%%%%%%%%%%%%%%%%%%%%%%%%%%%%%%
45003@%j%%%J%%%%%%%%%%%%%%%%%%%%%%%%%%%%%%%%%J%j%%%%%%%%%%%%%%%%%%%%%%%%%%%%%%%%
44926@%%%%%%%%%%%%%%%%%%%%%%%%%%%%%%%J%%%%j%%%%%%%%%%%%%%%%%%%%%%%%%%%%%%%%%%%%%
44849@%%%%%%%%%%%%%%%%%%%%%%%%%%%%%%%%%%%%%%J%%j%%%%%%%%%%%%%%%%%%%%%%%%%%%%%%%%
44772@%%%%Jj%%%%%%%%%%%%%%%%%%%%%%%%%%%%%%%%%%%%%%%%%%%%%%%%%%%%%%%%%%%%%%%%%%%%
44695@%%%%%%%%%%%%%%%%%%%%%%%%%%%%%j%J%%%%%%%%%%%%%%%%%%%%%%%%%%%%%%%%%%%%%%%%%%
44618@%%%%%%%%%%%%%%%%%%%%%%%%%%%%%%%%%%%%%%%%%%%%%jJ%%%%%%%%%%%%%%%%%%%%%%%%%%%
44541@%%%%%%%%%%%%%%%%%%%%%%%%%%%%%%%%%%%%%%%%%j%%J%%%%%%%%%%%%%%%%%%%%%%%%%%%%%
44464@%%%%%%J%j%%%%%%%%%%%%%%%%%%%%%%%%%%%%%%%%%%%%%%%%%%%%%%%%%%%%%%%%%%%%%%%%%
44387@%%%%%%%%%%%%%%%%%%%%%%%%%%%%%%%%%%%%%%%%%%%%%%%J%j%%%%%%%%%%%%%%%%%%%%%%%%
44310@%%%%%%J%%%%j%%%%%%Jj%%%%%%%jJ%%%%%%%%%%%%%%%%%%%%%%%%%%%%%%%%%%%%%%%%%%%%%
44233@%%%j%%J%%%%%%%%%%%%%%%%%%%%%%%%%%%%%%%%%%%%%%%%%%%%%%%%%%J%%j%%%%%%%%%%%%%
44156@%%%%%%%%%%%%%%%%%%%%%jJ%%%%%%%%%%%%%%%%%%%%%%%%%%%%%%%%%%%%%%%%%%%%%%%j%%J
44079@%%%%%%%%%%%%%%%%%%%%%%%%%%%%%%%%%%%%%%%%%%%%%%%%%%%%%%%%%%%%%%%%%%%%%%%%%%
44002@j%%%J%%%%%%%%%%%%%%%%%%%%%%%%%%%%%%%j%%%%J%%%%%%%%%%%%%%%%%%%%%%%%%%%%%%%%
43925@%%%%%%%%%%%%%%%%%%%%j%%%J%%%%%%%%%%%%%%%%%%%%%Jj%%%%%%%%%%%%%%%%%%%%%%%%%%
43847@%%%%%%%%%%%%%%%%%%%%%%%%%%%%%%%%%%%%%%%%%%%%%%%%%%%%%%%%%%%%%%%%%%%%%%%%%%
43770@%%%%%%%%%%%%%%%%%%%%%%%%%j%%%%%J%%%%%%%%%%%%%%%%%%%%%%%%%%%%%%%%%%%%%%%%%%
43693@%%%%%%%%%%%%%%%%%%%%J%j%%%%%%%%%%%%%%%%%%%%%%J%j%%%%%%%%%%%%%%%%%%%%%%%%%%
43616@%%%%%%J%%%j%%%%%%j%%J%%%%%%%%%%%%%%%%%%%%%%%%%%%%%%%%%%%%%%%%%%%%%%%%%%%%%
43539@%%%%%%%%%%%%%%%%%%%%%%%%%%%%%%%%%%%%%%%%%%%%%%%%%%%%%%%%%%%%%%%%%%%%%%%%%%
43462@%%%%%%%%%%%j%J%%%%%%%%%%%%%%%%%%%%%%%%%%%%%%%%%%%%%%%%%%%%%%%%%%%%%%%%%%%%
43385@%%%%%%%%%%%%%%%%%%%%%%%%%%%%%%%%%%%%%%%%%j%%J%%%%%%%%%%%%j%J%%%%%%%%%%%%%%
43308@%%%%%%%%%%%%%%%%%%%%jJ%%%%%%%%%%%%%%%%%%%%%%%%%%%%%%%%%%%%%%%%%%%%%%%%%%%%
43231@J%%%%j%%%%%%%%%%%%%%%%%%%%%%%%%%%%%%%%%%%%%%%%%%%%%%%%%%%%%%%%%%%%%%%%%%%%
43154@%%%%%%%%%%%%%%%%%%%%%%%%%j%J%%%%%%%%%%%%%%%%%%%%%%%%%%%%%%%%%%%%%%%%%%%%%%
43077@%%%%j%%%%J%%%%%%%%%%%J%j%%%%%%%%%%%J%j%%%%%%%%%%%%%%%J%%%j%%%%%%%%%%%%%%%%
43000@%%%%%%%%%%%%%%%%%%%%%%%%%%%%%%%%%%%%%%%%%%%%%%%%%%%%%%%%%%%%%%%%J%%%j%%%%%
42923@%%%%%%%%%%%%%%%%%%%%%%%%J%%j%%%%%%%%%%%%%%%%%%%%%%%%%%%%%%%%Jj%%%%%%%%%%%%
42846@%%%%%%%%%%%%%%%%%%%%%%%%%%%%%%%%%%%%%%%%%%%%%%%%%%%%%%%%%%%%%%%%%%%%%J%%j%
42769@%%%%%%%%%%%%%%%%%%%%%%%%%%%%%%%%%%%%%%%%%%%%%%%%%%%%%%%%%%%%%%%%%%%%%%%%%%
42692@%%%%%%%%%%%%%%%%%%%%%%%%%%%%%%%%%%%%%%%%%%%%%%%%%%%%%%%%j%%%J%%%%%%%%%%%%%
42614@%%%%%%%%%%%%%%%%%%%%%%%%%%%%%%%%%%%%%%%%%%%Jj%%%%%%%%%%j%%J%%J%j%%%jJ%%%%%
42537@%%%%%%%%j%J%%%%%%%%%%%%%%%%%%%%%%%%%%%%%%%%%%%%%%%%%%%%%%%%%%%%%%%%%%%%%%%
42460@%%%%%%%%%%%%%%%%%%%%%%%%%%%%%%%%%%%%%%%%%%%%%%%%%%%%%%%%%%%%%%%%%%%%%%%%%%
42383@%%J%%j%%%%%%%%%%%%%%%%%%%%%%%%%%%%%%%%%%%%%%%J%%j%%%%%%%%%%%%%%%%%%%%%%%%%
42306@%%%%%%%%%%%%%%%%%%%%%%%%%%%%%%%%%%%%%J%%j%%%%%%%%%%%%%j%%%J%%%%%%%%%%%%%%%
42229@%%%%%%%%%%%%%%%%%%%%%%%%%%%%%%%%j%%%J%%%%%%%%%%%%%%%%%%%%%j%%%%J%%%%j%%%%%
42152aJ%%%%%j%J%%%%%%%%%%%%%%%%%%%%%%%%%%%%%%%%%%%%%%%%%%%%%%%%%%%%%%%%%%%%%%%%%
42075@%%%%%%%%%%%%%%%%%%%%%%%%%%%%%%%%%%%%%%%%%%%%%%%%%%%%%%%%%%%%%%%%%%%%%%%%%%
41998@%%%%%%%%%%%%%%%%%j%%%J%%%%%%%%%%%%%%%%%%j%J%%%%%%%%%%%%%%%J%j%%%%%%%%%%%%%
41921@%J%%j%%%%%%%%%%%%%%%%%%%%%%%%%%%%%%%%%%%%%%%%%%%%%%%%%%%%%%%%%%%%%%%%%%%%%
41844@%%%%%%%%%%%%%%%%%%%%%%%%%%%%%%%%%%%%%%%%%%%%%%%%%%%%%%%%%%J%%%j%%%%%%%%%%%
41767@%%%%%%%%%J%%j%%%%%%%%%%%%%%%%%%%%%%%%%%%%%%%%%%%%%%%%%%%%%%%%%%%%%J%j%%%%%
41690@%%%%%%%%%%%%%%%%%%%%%%%%%%%%%%j%%J%%%%%%%%%%%%%%%%%%%j%J%%%%%%%%%%%%%%%%%%
41613@%%%%%%%%%%%%%%%%%%%%%%%%%%%%%%%%%%%%%%%%%%%%%%%%%%%%%%%%%%%%%%%%J%j%%%%%%%
41536@%%%%%%%%%%%%%%%%%%%%%%%%%%%%%%%%%%%%%%%%%%%%%%%%%%%%%%%%%%%%%%%%%%%%%Jj%%%
41459@%%%%%%%%%%%%%%%%%%%%%%%%%%%%%%%%%%%%%%%%%%%%%%%%%%%%%%%%%%%%%%%%%%%%%%%%%%
41381@%%%%%%%%%%%%%%%%%%%%%%%%%%%%%%%%%%%%%%%%%%%%%%%%%%%%%%%%%%%%%%%%%%%%%%%%%%
41304@%%%%%%%%%%%%j%J%%%%%%%%%%%%%%%%%%%%%%%%%%%%%%%%%%%%%%%%%%%%%%%%j%%%J%%%%%%
41227@%%%%%%%%%%%%%%%%%%%%%%%%%%%%%%%%%%%%%%%%%%%%%%%%%%%%%%%%%%%%%%%%%%%%%%%%%%
41150@%%%%%%%%%%%%%%%%%%%%%%%%%%%%%%%%%%%%%%%%%%%%%%%%%%%%%%%%%%%%%%%%%%%%%%%%%%
41073@%%%%%%%%%%%%%%%%%%%%%%%%%%%%%%%%%%%%%%%%%%%%%%%%%%%%%%%%%%%%%%%%%jJ%%%%%%%
40996@%%%%%%%%%J%j%%%%%%%%%%%%%%%%%%%%%%%%%%%%%%%%%%%%%%%%J%%%j%%%%%%%%%%%J%%j%%
40919@%%%%%%%%%%%%%%%%%%%%%jJ%%%%%%%%%%Jj%%%%%%%%%%%%%%%%%%%%%%%%%%%%%%%%%%%%%%%
40842@%%%%%%%%%%%%%%%%%%%%%%%%%%%%%%%%%%%%%%%%%%%%%%%%%%%%%%%%%%%%%%%%%%%%%%%j%%
40765a%J%%%%%%%%%%%%%%%%%%%%%%%%%%J%%%j%%%%%%%%%%%%%%J%%%j%%%%%%%%%%%%%%%%%%%%%%
40688@%%%%%%%%%%%%%%%%%%%%%%%%%%%%%%%%%%%%%%%J%%%%%%%j%%%%%%%%%%%%%%%%%%%%%%%%%%
40611@%%%%%%%%%%%%%%%%%%%%%%%%%%%%%%%%%%%%%%%%%%%j%J%%%%%%%%%%%%%%%%%%%%%%%%%%%%
40534@%%%%%%%%%%%%%%%%%%%%%%%%%%%%%%%%%%%%%%%%%j%%J%%%%jJ%%%%%%%%%%%%%%%%%%%%%%%
40457@%%%%%%%%%%%%%%%Jj%%%%%%%%%%%%%%%%%%%%%%%%%%%%%%%%%%%%%%%%%%%%%%%%%%%%%%%%%
40380@%%%%%%%%%%%%J%j%%%%%%%%%%%%%%%%%%%%%%%Jj%%%%%%%%%%%%%%%%%%%%%%%%%%%%%%%%%%
40303@%%%%%%%%%%%%%%%%%%%%%%%%%%%%%%%%%%%%%%%%%%%%%%%%%J%%%%j%%%%%%%%%%%%%%%%%%%
40226@%%%%%%%%J%%%%j%%%%%%%%%%%%%%%%%%%%%%%%%%%%%%%%%%%%%%%%%%%%%%%%j%%J%%%%%%%%
40148@%%%%%%%%%%%%%%%%%%%%%%%%%%%%%%%%%%%%%%%%%%%%%%%%%%Jj%%%%%%%%%%%%%%%%%%%%%J
40071A%%j%%%%%J%%%j%%%%%%%%%%%%%%J%%%j%%%%%%%%%%%%%%%%%%%%%%%%%jJ%%%%%%%%%%%%%%%
39994@%%%%%%%%%%%%%%%%%%%%%%%%%%%%%J%j%%%%%%%%%%%%%%%%%%%%%%%%%%%%%%%%%%%%%%%%%%
39917@%%%%%%%%%%%%%%%%%%%%%%%%%%%%%%%%%%%%%%%%%%%%%%%%%%%%%%%%%%%%%%%%%%%%%%%%%%
39840@%%%%%%%%%%%%%%%%%%%%%%%%%%%%%%%%%%%%%%%%%%%%%%%%%%%%%%%%%%%%%%%%%%%%%%%%%%
39763@%%%%%%%%%%%%%%%%%%%%%%%%%%%%%%%%%%%%%%%%%%%%%%%%%%J%j%%%%%%%%%%%%%%%%%%%%%
39686@%%%%%%%%%%%%%%%%%%%%%%%%%%%%%%%%%%%%%%%%%%%%%%%%%%%%%%%%%%%%%%%%%%%%%%%%%%
39609@%%%%%%%%%%%%%%%%%%%%%%%%%%%%%%%%%%%%%%%%%%%%%%%%%%%%%%%%%%%%%%%%%%%%%%%j%%
39532aJ%%%%%%%%%%%%%%%%%%%%%%%%%%%%%%%%%%%%%%J%%%j%%%%%%%%%%%%%%%%%%%%%%%%%%j%%J
39455@%%%%%%%%%%%%%%%%%%%%%%%%%%%%%%%%%%%%%%%%%%%%%%%%%%%%%%%%%%%%%%%%%%%%%%%%%%
39378@%%%%jJ%%%%%%%%%%%%%%%%%%%%%%%%%%%%%%%%%%%%%%%%%%%%%%%%%%%%%%%%%%%%%%%%%%%%
39301@%%%%%%%%%%%J%j%%%%%%%%%%%%%%%%%%%%%%%%%%%%%%%%%%%%%%%%%%J%%%j%%%%%%%%%J%%%
39224Aj%%%%%%%%%%%%%%%%%%%%%%%%%%%%%%%%%%%%J%%%j%%%%%%%%%%Jj%%%%%%%%%%%%%%%%%%%%
39147@%%%%%%%%%%%%Jj%%%%%%%%%%%j%J%%%%%%%%%%%%%%%%%%j%J%%Jj%%%%%%%%%%%%%%%%%%%%%
39070@%%%%%%%%%%%%%%%%%%%%%%%Jj%%%%%%%%%%%%%%%%%%%%%j%J%%%%%%%%%%%%%%%%%%%%%%%%%
38993@%%%%%%%%%%%%%%%%%%%%%%%%%%%%%%%%%%J%%%%%%j%%%%%%%%%%%%%%%%%%%%%%%%%%%%%%%%
38915@%%%%%%%%%%%%%%%%%%%%%%%%%%%%%%%%%%%%%%%%%%%%%%%%%%%%%%%%%%%%%%%%%%%%%%%%%%
38838@%%%%%%%%%%%%%%%%%%%%%%%%%%%%%%%%%%%%%%%%%%%%%%%%%%%%%%%%%%%%%%%%%%%%%%%%%%
38761@%%%%%%%%%%%%%%%%%%%%%%%%%%%%%%%%%%%%%%%%%%%%%%%%%%%%%%%%%j%J%%%%%%%%%%%%%%
38684@%%%%%%%%%%%%%%%%%%%%%%%%%%%%%%%%%%%%%%%%%%%%%%%%%%j%%J%%%%%%%%%J%%j%%%%%%%
38607@%%%%%%%%%%%%%%%%%%%%%%%%%%%%%%%%%%%%%%%%%%%%%%%%%%%%%%%%%%%%%%%%%%%%%%%%%%
38530@%%%%%%%%%%%%%%%%j%%%J%j%%%J%%%%%%%%%%%%%%%%%%%%%J%%%%%j%%%%%%%%%%%%%%%%%%%
38453@j%%J%%%%%%%%%%%%%%%%%%%%%%%%%%%%%%%%%%%%%%%%%%%%%%%%%%%%%%%%%%%%%%%%%%%%%%
38376@%%%%%%%%%%%%%%%%%%%%%%%%%%%%%Jj%%%%J%%%j%%%%%%%%%%J%j%%%%%%%%%%%%%%%%%%Jj%
38299@%%j%J%%%%%%%%%%%%%%%%%%%%%%%%%%%%%%%%%%%%%%%%jJ%%%%%%%%%%%%%%%%%%%%%%%%%%%
38222@%%%%%%%%%%%%%%%%%%%%%%%%%%%%%J%%%j%%%%%%%%%%%%%%%%%%%%%%%%%%%%%%%%%%%%%%%%
38145@%%%%%%%%%%%%%%%%%%%%%%%%%%%%%%%%%%%%%%%%%%%%%%%%%%%%%%%%%%%%%J%%j%%%%%J%j%
38068@%%%j%J%%%%%%%%%%%%%%%%%%%%%%%%%%%%%%%%%%%%%%%%%%%%%%%%%%%%%%%%%%%%%%%%%%%%
37991@%%%%%%%%%%%%%%%%%%%%%%%%%%%%%%%%%%%%%%%%%%j%%J%%%%%%%%%%%%%%%%%%%%%%%%%%%%
37914@%%%%%%%%%%%%%%%%%%%%%%%%%%%%%%%%%%%%%%%%%%%%%%%%%%%%%%%%%%%%%%%%%%%%%%%%%%
37837@%%%%%%%%%%%%%%%%%%%%%%%%%%%%%%%%%%%%%%%%%%%%%%%%%%J%%%%j%%%%%%%J%j%%J%j%%%
37760@%%%%%%%%%%%%%%%%%%%%%%%%%%%%%%%%%%%%%%%%%%%%%%%%%%%%%%%%%%%%%%%%%%%jJ%%%%%
37682@%%%%%%%%%%%%%%%%%%%%%%%%%%%%%%%%%%%%%%%%%%%%%%%%%%%%%%%%%%%%%%%%%%%%%%%%%%
37605@%%%%%%%%%%%%%%%%%%%%%%%%%%%%%%%%%%%%%%%%%%%%%%%%%%%%%%%%%%%%%%%%%%%%%%%%%%
37528@%%%%j%%%J%%%%%%%%%%%%%%%%%%%%%%%%%%%%%Jj%%%j%%J%%%%%%%%J%%%j%%%%%%%%%%%%%%
37451@%%%%%%%%%%%%%%%%%%%%%%%%%%%%%%%%%%%%%%%J%%%%%%%%%%%j%%%%%%%%%%%%%%%%%%%%%%
37374@%%%%Jj%%%%%%%%%%%%%%%%%%%%%%%%%%%%%%%%%%%%%%%Jj%%%%%%%%%%%%%%%%%%%%%%%%%%%
37297@%%%%%%%%%%%%%%%%%%%%%%%%%%%%%%%%%%%%%%%%%%%%%%%%%%%%%%%%%%%%%%%%%%%%%J%j%%
37220@%%%%%%%%%%%%%%%%%%%%%%%%%%%j%%J%%%%%%%%%%%%%%%%%%%%%%%%%%%%%%%%%%%%%%%%%%%
37143@%%%%%%%%%%%%%%%%%%%%%%%%%%%%%%%%%%%%%%%%%%%%%%%%%%%%Jj%%%%%%%%%%%%%%%%%%%%
37066@%%%%%%%%%%%%%%%%%%%%%%%%%%%%%%%%%%j%%%J%%%%%%%%%%%%%%%%%%%%%%%%%%%%%%%%%%%
36989@%%%%%%%%%%%Jj%%%%%%%%%%%%%%%%%%%%%%%%%%%%%%%J%%%j%%%%%%%%%%%%%%%%%%%%%%%%%
36912@%%%%%%%%%%%%%%%%%%%%%%jJ%%%%%%%%%%%%%J%%j%%%%%%%%%%%%%%%%%%%%%%%%%%J%%%%j%
36835@%%%J%%%%%j%%%%%%%%%%%%%%%%%%%%%%%%%%%%%%%%%%%%%%%%%%%%%%%%%%%%%%%%%%%%%%%%
36758@%%%%%%%%%%%%%%%%%%%%%%%%%%%%%%%%%%%%%%%%%%%%%%%%%%%%%%%%%%%%jJ%%%%%%%%%%%%
36681@%%%%%%j%%%%J%%%%%%%%%%%%%%%%%%%%%%%%%%%%%%%%j%J%%%%%%%%%%%%%%%%%%%%%%%%%%%
36604@%%%%J%%j%%%%%%%%%%%%%%%%%%%%%%%%%%%%%%%%%%%%%%%%%%j%J%%%%%%%%%%%J%%%j%%%%%
36527@%%%%%j%J%%%%%%%%%%%%%%%%%%%%%%J%%%j%%%%J%%j%%%%%%%%%%%%%%%%%%%%%%%%%%%%%%%
36449@%%%%%%%%%%%%%%%%%%%%%%%%%%%%%%%%%%%%%%%%%%%%%%%%%%%%%%%%%%%j%%J%%%%%%%%%%%
36372@%%%%%j%%J%%%%%%%%%%%%%%%%%%%%%%%%%%%%%%%%%%%%%%%%%%%%%%%%%%%%%%%%%%jJ%%%Jj
36295@%%J%%%%%j%%%%%%%%%%%%%%%%%%%%%%%%%%%%%%%%%%%%%%%%%J%%j%%%%%%%%%%%%%%%%%%%%
36218@%%%%%%%%%%%%%%%%%%%%Jj%%%%%%%%%%%%%%%%%%J%j%%%%%%%%%%%%%%%%%%%%%%%%%%%%%%%
36141@%%%%%%Jj%%%%%%%Jj%%%%%%%Jj%%%%%%%%%%%%%%%%%%%J%%%%j%%%%J%j%%%%%%%%%%%%%%%%
36064@%%%%%%%%%%%j%%J%%%%%%%%%%%%%%%%%%%Jj%%%%%%%%%%%%%%%%%%%%%%%%%%%%%%%%%%%%%%
35987@%%%J%j%%%%%%%%%%%%%%%%%%%%%%%%%%%%%%%%%%%%%%%%%%%%%%%%%%%%%%%%%%%%%%%%%%%%
35910@%%%%%%%%J%%%j%%%%%J%%j%%%%%%%%%%%%%%%%%%%%%%%%%%%%%%%%%%%%%%%%%%%%%%%%%%%%
35833@%%%%%%%%%%%%%%%%%%%%%%%%%%%%%%%%%%%%%%%%%%%%%%%%%%%%%%%%%%%%%%%%%%%%%%%%%%
35756@%%%%%%%%%%%%%%%%%%%%%%%%%%%%%%%%%%%%%%%%%%%%%%%%%%%%%%%%%%%%%%%%%%%%%J%%%j
35679@%%%%%%%%%%%%%%%%%J%%j%%%%%%%%%%%%%%%%%%%%%%%%%%%%%%%%%%%%%%%%%%%%%%%%%%%%%
35602@%%%%%%%%%%%%%%j%J%%%%%%%%%%%%%%%%%%%%%%%%%%%%%%%%%%%%%%%%%%%%%%%%%%%%%%%%%
35525@%%%%%%%%%%%%%%%%%j%%%J%%%%%%%%%%%%%%%%%%%%%%%%%%%%%%%%%%%%%%%%%%%%%%%%%%%%
35448@%%%%%%%%%%%%%%%%%%%%%%%%%%%%%%%%%%%%%%%%%Jj%%%%%%%%%%%%%J%%%%j%%%%%%%%%%%%
35371@%%%%%%%%%%%%%%%%%%%%%%%%%%%%%%%Jj%%%%%%%%%%%%%%%%%%%%%%%%%%%%%%%%%%%%%%%%%
35294@%%%%%%%%%j%J%%%%%%%%%%%%%%%%%%%%%%%%%%%%%%%%%%%%%%%%%%%%%%%%%%%%%%%%%%%%%%
35216@%%%%%%%%%%%%%%%%%%%%%%%%%%%%%%%%%%%%%%%%%%%%%%%%%%%%%%%%%%%%%%%j%%J%%%%%%%
35139@%%%%%%%J%%j%%%%%%%%%%%%%%%%%%%%%%%%jJ%%%%%%%%%%%%%%%%%%%%%%%%%%%%%%%%%%%%%
35062@%%%%%%%%%%%%%%%%%%%%%%%%%%%%%%%%%%%%%%%%%%%%%%%%%%%%%%%%%%%%%%%%%%%%%%%%%%
34985@%%%%%%%%%%%%%%%J%j%%%J%%j%%%%%%%%%%%%%%%%%%%%%%%%%%%%%%%%%%%%%%%%%%%%%%%%%
34908@%%%%%%%%%%%%%%%%%%%%%%%%%%%%%jJ%%%%%%%%%%%%%%%%%%%%j%%%%%J%%%%%%%%%J%j%%%%
34831@%%%%%%%%%%%%%%%%%%%%%%%%%%Jj%%%%%J%%j%%%J%%%j%%%%%%%%%%%%%%%%%%%%%%%%%%%%%
34754@%%%%%%%%%%j%%%%%%%J%%%%%%%%%%%%%%%%%%%%%%%j%%%%%%%%%%J%%%%%%%%%%%%%%%%%%%%
34677@%%%%%%%%%%%%%%%%%%%%%%%%%%%%%j%%J%%%%%%%%%%%%%%%%%%%%%%%%%%J%%%j%%%%%%%%%%
34600@%%%%%%%%%%%%%%%%%%%%%%%%%%%%%%%%%%%%%%%%%%%%%%%%%%%%%%%%%%%%%%%%%%%%%%%%%%
34523@%%%%%%%%%%%%%%%%%%%%%%%%%%%%%%%%%%%%%%%%%%%%%%%%%%%%%%%%%%J%%%j%%%%%%%%%%%
34446@%%%%%%%%%%%%%%%%%%%j%%%J%%%%%%%%%%%%%%J%%%%%%%j%%%%%%%%%%%%%%%%%%%%%%%%%%%
34369@%%%%%%%%%%%%%%%%%%%%%%%%%%%%%%%%%%%%%%%%%%%%%%%%%%%%%%%%%%%%%%%%%%%%%%%%%%
34292@%%%%%%%%%%%%%%%%%%%%%j%%%%J%%%%%%%%%%%%%%%%%%%%%%%%%%%%%%%%%%%%%%%%%%%%%%%
34215@%%%%%%%%%%%%%%%%%%%%%%%%%%%%%%%%%%%%%%%%%%%%%%%%%%%%%%%%%%%%%%%%%%%%%%%%%%
34138@%%%%%%%%%%%J%%j%%%%%%%%%%%%%%%%%%%%%%%%%%%%%J%j%%%%%%%%%jJ%%%%%%%%%%%%%%%%
34061@%%%%%%%%%%%%%%%%%%%%%%%%%%%%%%%%jJ%%%%%%%%%%%%%%%%%%%%%%Jj%%%%%%%%%%%%%%%%
33983@J%%j%%%%%%%%%%%%%%%%%%%%%%%%%%%%%%%%%%%%%%%%%%%%%%%%%%%%%%%%%%%%%%%%%%%%%%
33906@%%%%%%%%%%%%%%%%%%%%%%%%%%%%%%%%%%%%%%%%%%%%%%%%%%%%%%%%%%%%%%%%%%%%%%%%%%
33829@%%%%%%%%%%%%%%%%%%%%%%%%%%%%%%%%%%%%%%%%%%%%j%J%%%%%%%%%%%%%%%%%jJ%%%%%%%%
33752@%%%%%%%%%%%%%%%%%%%%J%%%%j%%%%%%%%%%%%%%%%%%%%%%%%%%%%%%%%%%%%%%%%%%%%%%%%
33675@%%%%%%%%%%%%%%%%%%%%%%%%%%%%%%%%%%%%%%%%%%%%%%%%%%%%%%%%%%%%%%J%%j%%%%%%%%
33598@%%%%%%%%%%%%%%%%%%%%%%%%%%%%%%%%%%%%%%%%%%%%%%%%%%%%%%%%%%%%%%%%%%%%%%%%%%
33521@%%%%%%%%%%%%%%%%%%%%%%%%%%%%%%%%%%%%%%%%%%%%%%%%%%%%%%%%%%%%%%%%%%%%%%%%%%
33444@%%%%%%%%%%%%%%%%%%%%%%%%%%%%%%%%%%%%%%%%%%%%%%%%%%%%%%%%%%%%j%%J%%%%%%%%%%
33367@%%%%%%%%%%%%J%%%%j%%%%%%%%%%%%%%%%%%%%%%%%%%%%%%%%%%%%Jj%%%%%%%%%%%%%%%%%%
33290@%%%%%%%%%%%%%%%%%%%%%%%%%%%%%%%%%%%%%%%%%%%%%%%%%%%%%%%%Jj%%%%%%%%%%%%%%J%
33213A%j%%%%%%%%%%%%%%%%%%%%%%%%%%%%%%%%%%%%%%%%%j%%%J%%%%%%%%%%%%%%%%%%%%%%%%%%
33136@%%%%%%%%%%%%%%%%%%%%%%%%%%%%%%%%%%%%%%%%%%%%%%%%%%%%%%%%%%%%%%%%%%%%%%%%%%
33059@%%%%%%%%%%%%%%%%%%%%%%%%%%%%%%%%%%%%%%%%%%%%%j%%J%%%%%%%%%%%%%%%%%%%%%%%%%
32982@%%%%%%%%%%%%%%%%%%%%%%%%%%%%J%%j%%%J%j%%%%%%%%%%%%%%%%%%%%jJ%%%%%%%%%%%%%j
32905a%%%J%%%%%%%%%%%%%%%%%%%%%%%%%%%%%%%%%%%%%%%%%%%%%%%%%%%%%%%%%%%%%%%%%%%%%%
32828@%j%%%J%%%%%%%%%%%%%%j%J%%%%%%%%%%%%%%%%%%%%j%%J%%%%j%J%%%%%%%%%%%%%%%%%%%%
32750@%%%%%%%%%%%%%%%%%%%%%%%%%%%%%%%%%%%%%%%%%%%%%%%%%%%J%j%%%%%%%%%%%%%%%%%%%%
32673@%%%%%%%%%%%%%%%%%%%%%%%%%%%%%%%%%%%%%%%%%%%%%%%%%%%%%%%%%%%%%%%%%j%%J%%%Jj
32596@%%%%%%%%%J%j%%%%%%%%%%%%%%%%%%%%%%%%%%%%%%%%%%%%%%%%%%%%%%%%%%%%%%%%%%%%%%
32519@%%%%%%%%%%%%%%%%%%%%%%%%%%%%%%%%%%%%%%%%%%%%%%%%%%%%%%%%%%%%%%%%%%%%%%%%%%
32442@%%%%%%%%%%%%%%%%%%%%%%%%%%%%%%%%%%%%%%%%j%%%%%J%%%%%%%%%%%%%%%%%%%%%%%%%%%
32365@%%%%%%%%%%%%%%%%%%%%%%%%%%%%%%%%%%%%%%%%%%%%%%%%%%%%%%%%%%%%%%%%%%%jJ%%%%%
32288@%%%%%%%%%%%%%%%%%%%%%%%%jJ%%%%%jJ%%%%%%%%%%%%%%%%%%%%%%%%%%%%%%%%%%%%%J%%j
32211@%%%%%%%%%%%J%j%%%%%%%%%%%%%%%%%%%%%%%%%%%%%%%%%%%%%%%%%%%%%%%%%%%%%%%%%%%%
32134@%%%%%%%%%%%%%%%%%%%%%%%%%%%%%%%%%%%%%%%%%%%%%%%%%%%%%%%%%%%%%%%%%%%%%%%%%%
32057@%%%%%%%%%%%%%%%%%%%%%%%%%%%%%%%%%%%%%%%%%%%%%%%%%%%%%%%%%%%%%%%%%%%%%%%%%%
31980@%%%%%%%%%%%%%%%%%%%%%%%%%%%%%%%%%%%%%%%%%%%%%%%%%%j%%%%%%%J%%%j%J%%%%%%%%%
31903@%%%%%%%%%%%%%%%%%%%%%%%j%%%%%%%%%%%%J%%%%%%%%%%%%%%%%%%%%%%%%%%%%%%%%%%%%%
31826@%%%%%%%j%J%%%%%%%%%%%%%%%%%%%%%%%%%%%%%%J%%j%%%%%%%%%%%%%%%%%%%%%%%%%%%%%%
31749@%%%%%%%%%%%%%%%%%%%%%%j%%%%%%J%%%%%%%%%%%%%%%%%%%%%%%%%%%%%%%%%%%%%%%%%%%%
31672@%%%%%%%%%%%%%%J%j%%%%%%%%%%%%%%%j%%J%%%%%%%%%%%%%%%%%%%%%%%%%%%%%%%%%%%%%%
31595@%%%%%%%%%%%%%%%%%%%%%%%%%%%%%%%%%%%%%%%%%%%%%%%%%%%%%%%%%%%%%%%%%%%%%%%%%%
31517@%%%%%%%%%%%%%%%%%%%%%%J%%j%%%%%%%%%%%%%%%%%%%%%%%%%%%%%%%%%%%%%%%%%%%%%%%%
31440@%%%%%%%%%%%%%%%j%J%%%%%%%%%%%%%%%%%%%%%%%%%%%%%%%%%%%%%%%%%%%%%%%%%%%%%%%%
31363@%%%%%%%%%%%%J%%j%%%%%%%%%%%%%%%%%%%%%%%%%%%%%%%%%%%%%%%%%%%%%%%%%%%%%%%%%%
31286@%%%%%%%%%%%%%%%%%%%%%%%%%%%%%%%%%%%%%%%%%%%%%%%%%j%%J%%%%%%%%%%%%%%%%%%%%%
31209@%%%j%%%J%%%%%%%%%%%%%%%%%%%%%%%%%%%%%%%%%%%%%%%%%%%%%%%%%%%%%%%%%%%%%%%%%%
31132@%%%j%J%%%%%%%%%%%%%%%%%%%%%%%%%%%%%%%%%%%%%%%%%%%%%%%%%%%%%%%%%%%%%%%%%%%%
31055@%%%%%%%%%%%%%%%%%%%%%%%%%%%%%J%%%j%%%%%%%%%%%%%J%%j%%%%%%%%%%%%%%%%%%%%%%%
30978@%%%%%%%%%%%%%%%%%%%%%%%%%%%%%%%%%%%%%%%%%%J%%%%%j%%%%%%%%%%%%%%%%%%%%%%%%%
30901@%%%%j%J%%%%%%%%%%%%%%%%%%%%%%%j%%J%%%%%%%%%%%%%%%%%%J%j%%%%%%%%%%%%%%%%%%%
30824@%%%%%%%%%%%%%%%%%%%%%%%%%%%%%%%%%%%%%%%%%%%%%%%%%%%%%%%%%%%%%%%%%%%%%%%%%%
30747@%%%%%%%%%%%%%%%%%%%%%%%%%%%%%%%%%%%%%%%%%%%%%%%%%%%%%%%%%%%%%%%%%%%%%%%%%%
30670@%%%%%%%%%%%%%%%%%%%%%%%%%%%%%%%%%%%%%%%%%%%%%%%%%%%%%%%%%%%%%%%%%%%%%%%%%%
30593@%%%%%%j%J%%%Jj%%%%%%%J%%%j%%%%%%%%%%%%%%%%%%%%%%%%%%%%%%%%%%%%%%%%%%%%%%%%
30516@%%%%%%%%%%%%%%%%%%%%%%%%%%%%%%j%%J%%%j%%J%%%%%%%%%%%%%%%%%%%%%%%%%%%%%%%%%
30439@%Jj%%%%%%%%%%%%%%%%j%J%%%%%%%%%%%%%%%%%%j%J%%J%%j%%%%%%%%%%%%%%%%%%%%%%%%%
30362@%%%%%%%%%%%%%%%%%%%%%%%J%j%%%%%%%%%%%%%%%%%%%%%%%%%%%%%%%%%%%%%%J%%%j%%%J%
30284A%%j%%%%%%%%%%%%%%%%%%%%%%%%%%%%%%%%%%%%%%%%%%%%%%%%%%J%%j%%%%%%%%%%%%%%%%%
30207@%%%%%%%%%%%%%%%%%%%%%%%%%%%%%%%%%%%%%%%%%%%%%%%%%%%%%%%%%%%%%%%%%%%%%%%%%%
30130@%%%%%%%%%%%j%J%%%%%%%%%%%%%%%%%%%%%%%%%%%%%%%%%%%%%%%%%%%%%%%%%%%%%%%%%%%%
30053@%%%%%%%%%%%%%%%%%%%%%%%%%%%%%%%%%%%%%%%%%%%%%%%%%%%%%%%%%%%%%%%%%%%%%%%%%%
29976@%%%%%%%%%%J%%j%%%%%%%%%%%%%j%J%%%%%%%%%%%%%%%%%%%%%%%%%%%%%%%%%%%%%%%%%%%%
29899@%%%%%%%%%%J%%j%%%%%%%%%%%%%%%%j%%J%%%%%%J%%%%j%%%%%%%%%%%J%%j%%%%%%%%%%%%%
29822@%%%%%%%%%%%%%%%%%%%%%%%%%%J%%%j%%%%%%%%%%%%%%%%%%%%%%%%%%%%%%%%%%%%%%%%%%%
29745@%%%%%%%%%%%%%%j%%%J%%%%%%%%%%%%%%%%%%%%%%%%%%%%%%%%%%%%%%%%%%%J%%j%%%J%%j%
29668@%J%%%j%%%%%%%%%%j%%%J%%%%%%%%%%%%%%%%%%%%%%%Jj%%%%%%%%%%%%%%%%%%%%%%%%%%%%
29591@%%%%%%%%%%%%%%%%%%%J%%j%%%%%%%%%%%%%%%%%%%%%%%%%%%%%%%%%%%%%%J%j%%%%%%%%%%
29514@%%%%%%%%%%%%%j%%J%%%%%%%%%%%%%%%%%%%%J%%j%%%%J%j%%%%%%%%%%%%%%%%%%%%%%%%%%
29437@%%%%%%%%%%%%j%%%%J%%%%%%%%%%%%%%%%%%%%%%%%%%jJ%%%%%%%%%%%%%%%%%%%%%%%%%%%%
29360@%%%%%%%%%%%%%%%%%%%%%%%%%%%%%%%%%%%%%%%%%%%%%%%%%%%%%%%%%%J%%j%%%%%%%%%%%%
29283@%%%%%%%%%%%%%%%%%%%J%j%%%%%%%%%%%%%%%%%%%%J%j%%%%%%%%%%%%%%%%%%%%%%%%%%%%%
29206@%%%%%%%%%%%%%%%%%%%%%%%%%%%%%%%%%%%%%%%%%%%%%%%%%%%j%%J%%%%%%%%%%%%%j%%%J%
29129@%%%%%%%%%j%J%%%%%%%%%%%%%%%%%%%%%%%%%%%%%%%%%%%%%%%%J%%j%%Jj%%%%%%J%%%%%%%
29051A%%j%%%%%%%%%%%%%%%%%%%%%%%%%%%%%%%%%%%%%%%%%%%%%%%%%%%%%%%%%%%%%%%%%%%%j%%
28974a%%J%%%%%%%%%%%%%%%%%%%%%%%%%%%%J%j%%%%%%%%%%%%%%%%%%%J%%j%%%%%%%%%%%%%%%%%
28897@%%%%%%%%%%%%%J%%%%%%j%%%%%%%%%%%%%%%%%%%%%%%%%jJ%%%%%%%%%%%%%%%j%J%%%%j%%%
28820a%J%%J%%%j%%%%%%%%%%%%%%%%%%%%%%%%%%%%%%%%%%%%%%%%%%%%%%%%%%%%%%%%%%%%%%%%%
28743@%%%%%%%%%%j%J%%%%%%%%%%%%%%%%%%%%%%%%%%%%%j%%%J%%%%%%%%%%%%%%%%%%%%%%%%%%%
28666@%%j%%J%%%%%%%%%%%%%%%%%%%%%%%%%%%%%%%%%%%%%%%%%%%%%%%%%%%%%%%%%%%%%%%%%%%%
28589@%%%%%%%%%%%%%%%%j%%%J%%%%%%%%%%%%%%%%%%%%%%%%%%%%%%%%%%%%%%%%%%%%%%%%j%%J%
28512@%%%%%%%%%%%%%%%%%%%%%%%%%%%%%%%%%%%%%%%%%%%%%%%%%%%%%%%%%%%%%%%%%%%%%%%%%%
28435@J%%j%%%j%%%J%%%%%%%%%%%%%%%%%%%%%%%%%%%%%%%%%%%%%%%%%%%%%%%%%%%%%%%%%%%%%%
28358@%%%%%%%%%%%%%%%%%%%%%%%%%%%%%%%%%%%%%J%j%%%%%%%%j%%J%%%%%%%%%%%%%%%%%%%%%%
28281@%%%%%%%%%%%%%%%%%%%%%%%%%%%%%%%%%%%%%%%%%%%%%%%%%%%%%%%%%%%%%%%%%%%%%%%%%%
28204@%%%%%%J%%j%%%%J%j%%%%%%%%%%%%%%%%%%%%%%%%%%%%%%%%%%%%%%J%%%j%%%%%%%%%%%%%%
28127@%%Jj%%%%%%%%%%%%%%%%%%%%%%%%J%%j%%%%%%%%%%%%%%%%%j%%%%%%%%J%%%%%%%%%%%%%%%
28050@%%%%%%%%%%%%%%%%%%%%%%%%%%%%%%%%%%j%%J%j%%%J%%%j%%J%%%%%%%%%%%%%%%%%%%%%%%
27973@%%%%%%%%%%J%%%%%j%%%%%%%%%%%%%%%%%%%%%%%%%%%%%%%%%%%%%%%%%J%j%%%%J%%j%%%%%
27896@%%%%%%J%%j%%%%%%%%%J%%%j%%%%%%%%%%%%%%%%%%%%%%%%%j%J%%%%%%%%%%%%%%%%%%%%%%
27818@%%%%%%%%%%%%%%%%%%%%%Jj%%%%%%%%%%%%%%%%%%%%J%%j%%%%j%%J%%%%%%%%%%%J%%%%j%%
27741@%%%%%%%%%%%%%%%%%%%%%%%%%%%%%%%%%%%%%%%%%%%%%%%%%%%%%%%%j%%%%%%%J%%%%%%%%%
27664@%%%%%%%%%%%%%%%%%%%%%j%J%%%%%%%%%%j%%%J%%%%%%%%%%%%%%%%%%%%%%%%%%%%%%%%%%%
27587@%%%%%%%%%%%%%%%%%%%%Jj%%%%%%%%%%%%%%%jJ%%%%%%%%%%%%%%%%%%%%%%j%J%%%%%%%%%%
27510@%%%%%%%%J%j%%%%%%%%%%%%%%%%%%%Jj%%%%%%%%%%%%%%%%%%%%%%%%%%%%%%%%%%%%%%%%%%
27433@%%%%j%%%J%%%%%%%%%%%%%%%%%%%%%%%%%%%%%%%%%%%%%%%%%%%%%%%%%%%%%J%j%%%%%%%j%
27356a%J%%%%%%%%%%%%%%%%%%%%%%%%%%%%%%%%%%%j%%J%%%%%%%%%%%%%%%%%%%%%%%j%J%%%%%%%
27279@%%%%%%%%%%%%%%%%%%%%%%%%%%%%%%%%%%%%%%%%%%%%%%%%%%%%%%%%%%%%%%%%%%%%%%%%%%
27202@%%%%%%%%%%%%%%%%%%%%%%j%%J%%%%%%%%%%%%%%%%%%%%%%%%%%%%%%%j%J%%%%%%%%%%%%%%
27125@%%%%%%%%%%j%%J%%%%%%%%%%%%%%%%%%%%%%%%%%%%%%%%%%%%%%%%%J%%%%%j%%%%%%%%%%%%
27048@%%%%%%%%%%%%%J%j%%%jJ%%%%%%%%%%%%%%J%%j%%%J%%%%j%%%%%%%Jj%%%j%J%%%%%%%%%%%
26971@J%%%j%%%%%%%%%%%%%%%%J%%%j%%%%%%%j%J%%%%%%%%%%%%%%%%j%%J%%%%%%%%%%%%%%%%%j
26894a%J%%%%%%%%%%%%%%%%%%%%%%%%%%%%%%%%%%%%%%%%%j%%%J%%%%%%%%%%%%%%%%%%%%%%%%%%
26817@%%%%%%%%%%%%%%%%%%%%%%%%%%%%%%%%%%%%%J%%j%%%%%%%%%%%%%%%%%%%%%%%%%%%%%%%%J
26740Aj%%jJ%%%%%j%%J%%%%%%j%%J%%%%%%%%%%%%%%%%%%%%%%%%%%%%%%%%%%%%%%%%%%%%%%%%%%
26663@%%%%%%%%%%%%%%%%%%%%%%%%%j%%J%%%%j%J%%%%%%%%%%%%%%%%%%%%%%%%%%%%%%%%%j%%J%
26586@%%%%%%%%%%%%%%%%%%%%%%%%%%%%%%%%%%%%%%%%%%%%%%%%%%%%%%%%%%%%%%%%%%%%%%%%%%
26508@%%%%%%%%%%%%%%%%%%%%%%%%%%%%%%%%%%%%%%%%%%%%%%%%%%%%%%%%%%%%%%%%%Jj%%%%%%%
26431@%%%%%%%%%%%%%%%%%%%%%%%%%%%%%%%%%%%%%%%%%%%%%%%%%%%%%%%%%%%%%%%%%%%%%%%%%%
26354@%%%%%%%%%%%%%%%%%%%%%%%%%%%%%%%%%%%%%%%%%%%%%%%%%%%%%%%%%%%%%%%%%%%%%%%%%%
26277@%%%%%%%%%%%%%%%%%%%%%%%%%%%%%%%%%%%%%jJ%%%%%%%%%%%%%%%%%%%%%%%%%%%%%%%%%%%
26200@%%%%%%%%%%%%%%%%%%%%%%%%%%%%%%%%%%%%%%%%%%%%%%j%%J%%%%%%%%%%%%%%%%%%%%%%%%
26123@%%%%%%%%%%%%%%%%%%%%%%%%%%%%%%%%%%%Jj%%%%%%%%%%%%%%%%%%%%%%%%%%%%%%%%%%%%%
26046@%%%%%%%%%%%%%%%%%%%%%%%%%%%%%%%%%%%%%%%%%%%%%%%%%%%%%%%%%%%%%%%%%%%%%%%%%%
25969@%%%%%%%j%%%%J%%%%%%%%%%%%%%%%%%%%%%%%%%%%%%%%%%%%%%%%%%%%%%%%%%%%%%%%%%%%%
25892@%%%%%%%%%%%%%%%%%%%%%j%%%%%J%%%%%%%%%%%%%%%%%%%%%%%%%%%%%%%%%%%%%%%%%%%%%%
25815@%%%%%%%%%%%%%%%%%%%%%%%%%%%%%%%%%%%%%%%%%%%%%%%%%%%%%%%%%%%%%%%%j%%%%J%%%%
25738@%%%%%%%%%%%%%%%%%%%%%%%%%%%%%%%%%%%%%%%%%%%%%%%%%%%%%%%%%%%%%%%%%%%%%%%%%%
25661@%%%%%%%%%%%%%%%%%%%%%%%%%%%%%%%%%%%%%%%%%%%%%%%%%%%%%%%%%%%%%%%%%%%%%%%%%%
25584@%%%%%%%%%%%%%%%%%%%%%%%%%%%%%%%j%%J%%%%%%%%%%%%%%%%%%%%%%%%%%%%%%%%%%%%%%%
25507@%%%%%%%%%%%%%%%%%%%%%%%%%%%%%%%%%%%%%%%%%%%%%%%%%%%%%%%%%%%%%%%%%%%%%%%%%%
25430@%%%%%%%%%%%%%%%%%%%%%%%%%%%%%%%%%%%%%%%%%%%%%%%%%%%%%%%%%%%%%%%%%%%%%%%%%%
25353@%%%%%%%%%%%%%%%%%%%%%%%%%%%%%Jj%%%%%%%%%%%%%%%%%%%%%%%%%%%%%%%%%%%%%%%%%%%
25275@%%%%%%%%%%%%%%%%%%%%%%%%%%%%%%%%%%%%%%%%%%%%%%%%%%%%%%%%%%%%%%%%%%%%%%%%%%
25198@%%%%%%%%%%%%%%%%%%%%%%%%%%%%%%%%%%%%%%%%%%%%%%%%%%%%%%%%%%%%%%%%%%%%%%%%%%
25121@%%%%%%%%%%%%%%%%%%%%%%%%%%%%%%%%%%%%%%%%%%%%%%%%%%%%%%%%%%%%%%%%%%%%%%%%%%
25044@%%%%%%%%%%%%%%%%%%%%%%%%%%%%%%%%%%%%%%%%%%%%%%%%%%%%%%%%%%%%%%%%%%%%%%%%%%
24967@%%%%%%%%%%%%%%%%%%%%%%%%%%%%%%%%%%%%%%%%%%%%%%%%%%%%%%%%%%%%%%%%%%%%%%%%%%
24890@%%%%%%%%%%%%%%%%%%%%%%%%%%%%%%%%%%%%%%%%%%%%%%%%%%%%%%%%%%%%%%%%%%%%%%%%%%
24813@%%%%%%%%%%%%%%%%%%%%%%%%%%%%%%%%%%%%%%%%%%%%%%%%%%%%%%%%%%%%%%%%%%%%%%%%%%
24736@%%%%%%%%%%%%%%%%%%%%%%%%%%%%%%%%%%%%%%%%%%%%%%%%%%%%%%%%%%%%%%%%%%%%%%%%%%
24659@%%%%%%%%%%%%%%%%%%%%%%%%%%%%%%%%%%%%%%%%%%%%%%%%%%%%%%%%%%%%%%%%%%%%%%%%%%
24582@%%%%%%%%%%%%%%%%%%%%%%%%%%%%%%%%%%%%%%%%%J%j%%%%%%%%%%%%%%%%%%%%%%%%%%%%%%
24505@%%%%%%%%%%%%%%%%%%%%%%%%%%%%%%%%%%%%%%%%%%%%%%%%%%%%%%%%%%%%%%%%%%%%%%%%%%
24428@%%%%%%%%%%%%%%%%%%%%%%%%%%%%%%%%%%%%%%%%%%%%%%%%%%%%%%%%%%%%%%%%%%%%%%%%%%
24351@%%%%%%%%%%%%%%%%%%%%%%%%%%%%%%%%%%%%%%%%%%%%%%%%%%%%%%%%%%%%%%%%%%%%%%%%%%
24274@%%%%%%%%%%%%%%%%%%%%%%%%%%%%%%%%%%%%%%%%%%%%%%%%%%%%%%%%%%%%%%%%%%%%%%%%%%
24197@%%%%%%%%%%%%%%%%%%%%%%%%%%%%%%%%%%%%%%%%%%%%%%%%%%%%%%%%%%%%%%%%%%%%%%%%%%
24120@%%%%%%%%%%%%%%%%%%%%%%%%%%%%%%%%%%%%%%%%%%%%%%%%%%%%%%%%%%%%%%%%%%%%%%%%%%
24042@%%%%%%%%%%%%%%%%%%%%%%%%%%%%%%%%%%%%%%%%%%%%%%%%%%%%%%%%%%%%%%%%%%%%%%%%%%
23965@%%%%%%%%%%%%%%%%%%%%%%%%%%%%%%%%%%%%%%%%%%%%%%%%%%%%%%%%%%%%%%%%%%%%%%%%%%
23888@%%%%%%%%%%%%%%%%%%%%%%%%%%%%%%%%%%%%%%%%%%%%%%%%%%%%%%%%%%%%%%%%%%%%%%%%%%
23811@%%%%%%%%%%%%%%%%%%%%%%%%%%%%%%%%%%%%%%%%%%%%%%%%%%%%%%%%%%%%%%%%%%%%%%%%%%
23734@%%%%%%%%%%%%%%%%%%%%%%%%%%%%%%%%%%%%%%%%%%%%%%%%%%%%%%%%%%%%%%%%%%%%%%%%%%
23657@%%%%%%%%%%%%%%%%%%%%%%%%%%%%%%%%%%%%%%%%%%%%%%%%%%%%%%%%%%%%%%%%%%%%%%%%%%
23580@%%%%%%%%%%%%%%%%%%%%%%%%%%%%%%%%%%%%%%%%%%%%%%%%%%%%%%%%%%%%%%%%%%%%%%%%%%
23503@%%%%%%%%%%%%%%%%%%%%%%%%%%%%%%%%%%%%%%%%%%%%%%%%%%%%%%%%%%%%%%%%%%%%%%%%%%
23426@%%%%%%%%%%%%%%%%%%%%%%%%%%%%%%%%%%%%%%%%%%%%%%%%%%%%%%%%%%%%%%%%%%%%%%%%%%
23349@%%%%%%%%%%%%%%%%%%%%%%%%%%%%%%%%%%%%%%%%%%%%%%%%%%%%%%%%%%%%%%%%%%%%%%%%%%
23272@%%%%%%%%%%%%%%%%%%%%%%%%%%%%%%%%%%%%%%%%%%%%%%%%%%%%%%%%%%%%%%%%%%%%%%%%%%
23195@%%%%%%%%%%%%%%%%%%%%%%%%%%%%%%%%%%%%%%%%%%%%%%%%%%%%%%%%%%%%%%%%%%%%%%%%%%
23118@%%%%%%%%%%%%%%%%%%%%%%%%%%%%%%%%%%%%%%%%%%%%%%%%%%%%%%%%%%%%%%%%%%%%%%%%%%
23041@%%%%%%%%%%%%%%%%%%%%%%%%%%%%%%%%%%%%%%%%%%%%%%%%%%%%%%%%%%%%%%%%%%%%%%%%%%
22964@%%%%%%%%%%%%%%%%%%%%%%%%%%%%%%%%%%%%%%%%%%%%%%%%%%%%%%%%%%%%%%%%%%%%%%%%%%
22887@%%%%%%%%%%%%%%%%%%%%%%%%%%%%%%%%%%%%%%%%%%%%%%%%%%%%%%%%%%%%%%%%%%%%%%%%%%
22809@%%%%%%%%%%%%%%%%%%J%%j%%%J%%%%%%%%%%%%%%%%%%%%%%%%%%%%%%%%%%%%%%%%%%%%%%%%
22732A%%%%%%%%%%%%%%%%%%%%%%%%%%%%%%%%%%%%%%%%%%%%%%%%%%%%%%%%%%%%%%%%%%%%%%%%%%
22655A%%%%%%%%%%%%%%%J%%%%%%%%%%%%%%%%%%%%%%%%%%%%%%%%%%%%%%%%%%%%%%%%%%%%%%%%%%
22578B%%%%%%%%%%%%%%%%%%%%%%%%%%%%%%%%%%%%%%%%%%%%%%%%%%%%%%%%%%%%%%%%%%%%%%%%%%
22501B%%%%%%%%%%%%%%%%%%%%%%%%%%%%%%%%%%%%%%%%%%%%%%%%%%%%%%%%%%%%%%%%%%%%%%%%%%
22424B%%%%%%%%%%%%%%%%%%%%%%%%%%%%%%%%%%%%%%%%%%%%%%%%%%%%%%%%%%j%%%%%%%%%%%%%%%
22347A%%%%%%%%%%%%%%%%%%%%%%%%%%%j%%%%%%%%%%%%%%%%%%%%%%%%%%%%%%%%%%%%%%%%%%%%%%
22270@%%%%%%%%j%%%%%%%%%%%%%%%%%%%%%%%%%%%%%%%%%%%%%%%%%%%%%%%j%%%%%%%%%%%%%%%%%
22193b%%%%%%%%%%%%%%%%%%%%%%%%%%%%%%%%%%%%%%j%%%%%%%%%%%%%%%%%%%%%%%%%%%%%%%%%%%
22116c%%%%%%%%%%%%%%%%%%%%%%%%%%jJ%%%%%%%%%%%%%%%%%%%%%%%%%%%%%%%%%%%%%%%%%%%%%%
22039c%%%%%%%%%%%%%%%%%%%%%%%%%%%%%%%%%%%%%%%%%%%%%%%%%%%%%%%%%%%%%%%%%%%%%%%%%%
21962c%%%%%%%%%%%%%%%%%%%%%%J%%%%%%%%%%%%%%%%%%%%%%%%%%%%%%%%%%%%%%%%%%%%%%%%%%%
21885b%%%%%J%%%%%%%%%%%%%%%%%%%%%%%%%%%%%%%%%%%%%%%%%%%%%%%%%%%%%%%%%%%%%%%%%%%J
21808@%%%%%%%%%%%%%%%%%%%%%%%%%%%%%%%%%%%%%%%%%%%%%%%%%%%%%%%%%%%%%%%%%%%%%%%%%%
21731@%%%%%%%%%%%%%%%%%%%%%%%%J%%%%%%%%%%%%%%%%%%%%%%%%%%%%%%%%%%%%%%%%%%%%%%%%%
21654A%%%%%%%%%%%%%%%%%%%%%%%%%%%%%%%%%%%%%%%%%%%%%%%%%%%%%%%%%%%%%%%%%%%%%%%%%%
21576A%%%%%%%%%%%%%%%%%%%%%%%%%%%%%%%%%%%%%%%%%%%%%%%%%%%%%%%%%%%%%%%%%%%%%%%%%%
21499A%%%%%%%%%%%%%%%%%%%%%%%%%%%%%%%%%%%%%%%%%%%%%%%%%%%%%%%%%%%%%%%%%%%%%%%%%%
21422A%%%%j%%%%%%%%%%%%%%%%%%%%%%%%%%%%%%%%%%%%%%%%%%%%%%%%%%%%%%%%%%%%%%%%%%%%%
21345@%%%%%%%%%%%%%%%%%%%%%%%%%%%%%%%%%%%%%%%%%%%%%%%%%%%%%%%%%%%%%%%%%%%%%%%%%%
21268@%%%%%%%%%%%%%%%%%%%%%%%%%%%%%%%%%%%%%%%%%%%%%%%%%%%%%%%%%%%%%%%%%%%%%%%%%%
21191@%%%%%%%%%%%%%%%%%%%%%%%%%%%%%%%%%%%%%%%%%%%%%%%%%%%%%%%%%%%%%%%%%%%%%%%%%%
21114@%%%%%%%%%%%%%%%%%%%%%%%%%%%%%%%%%%%%%%%%%%%%%%%%%%%%%%%%%%%%%%%%%%%%%%%%%%
21037@%%%%%%%%%%%%%%%%%%%%%%%%%%%%%%%%%%%%%%%%%%%%%%%%%%%%%%%%%%%%%%%%%%%%%%%%%%
20960@%%%%%%%%%%%%%%%%%%%%%%%%%%%%%%%%%%%%%%%%%%%%%%%%%%%%%%%%%%%%%%%%%%%%%%%%%%
20883@%%%%%%%%%%%%%%%%%%%%%%%%%%%%%%%%%%%%%%%%%%%%%%%%%%%%%%%%%%%%%%%%%%%%%%%%%%
20806@%%%%%%%%%%%%%%%%%%%%%%%%%%%%%%%%%%%%%%%%%%%%%%%%%%%%%%%%%%%%%%%%%%%%%%%%%%
20729@%%%%%%%%%%%%%%%%%%%%%%%%%%%%%%%%%%%%%%%%%%%%%%%%%%%%%%%%%%%%%%%%%%%%%%%%%%
20652@%%%%%%%%%%%%%%%%%%%%%%%%%%%%%%%%%%%%%%%%%%%%%%%%%%%%%%%%%%%%%%%%%%%%%%%%%%
20575@%%%%%%%%%%%%%%%%%%%%%%%%%%%%%%%%%%%%%%%%%%%%%%%%%%%%%%%%%%%%%%%%%%%%%%%%%%
20498@%%%%%%%%%%%%%%%%%%%%%%%%%%%%%%%%%%%%%%%%%%%%%%%%%%%%%%%%%%%%%%%%%%%%%%%%%%
20421@%%%%%%%%%%%%%%%%%%%%%%%%%%%%%%%%%%%%%%%%%%%%%%%%%%%%%%%%%%%%%%%%%%%%%%%%%%
20343@%%%%%%%%%%%%%%%%%%%%%%%%%%%%%%%%%%%%%%%%%%%%%%%%%%%%%%%%%%%%%%%%%%%%%%%%%%
20266@%%%%%%%%%%%%%%%%%%%%%%%%%%%%%%%%%%%%%%%%%%%%%%%%%%%%%%%%%%%%%%%%%%%%%%%%%%
20189@%%%%%%%%%%%%%%%%%%%%%%%%%%%%%%%%%%%%%%%%%%%%%%%%%%%%%%%%%%%%%%%%%%%%%%%%%%
20112@%%%%%%%%%%%%%%%%%%%%%%%%%%%%%%%%%%%%%%%%%%%%%%%%%%%%%%%%%%%%%%%%%%%%%%%%%%
20035@%%%%%%%%%%%%%%%%%%%%%%%%%%%%%%%%%%%%%%%%%%%%%%%%%%%%%%%%%%%%%%%%%%%%%%%%%%
19958@%%%%%%%%%%%%%%%%%%%%%%%%%%%%%%%%%%%%%%%%%%%%%%%%%%%%%%%%%%%%%%%%%%%%%%%%%%
19881@%%%%%%%%%%%%%%%%%%%%%%%%%%%%%%%%%%%%%%%%%%%%%%%%%%%%%%%%%%%%%%%%%%%%%%%%%%
19804@%%%%%%%%%%%%%%%%%%%%%%%%%%%%%%%%%%%%%%%%%%%%%%%%%%%%%%%%%%%%%%%%%%%%%%%%%%
19727@%%%%%%%%%%%%%%%%%%%%%%%%%%%%%%%%%%%%%%%%%%%%%%%%%%%%%%%%%%%%%%%%%%%%%%%%%%
19650@%%%%%%%%%%%%%%%%%%%%%%%%%%%%%%%%%%%%%%%%%%%%%%%%%%%%%%%%%%%%%%%%%%%%%%J%%%
19573Aj%%%%%%%%%%%%%%%%%%%%%%%%%J%%j%%%%%%%%%%%%%%%%%%%%%%%%%%%%%%%%%%%%%%%%%%%%
19496@%%%%%%%%%%%%Jj%%%%%%%%%%%%%%%%%%%%%%%%J%j%%%%%%%%%%%%%%%%%%%%%%%%%%%%%%%%%
19419@%%%%%%%%%%%%%%%%%%%%%%%%%%%%%%%%%%%%%%%%%%%%%%%%%%%%%%%%%%%%%%%%%%%%%%%%%%
19342@%%%%%%%%%%%%%%%%%%%%%%%%%%%%%%%%%%%%%%%%%%%%%%%%%%%%%%%%%%%%%%%%%%%%%%%%%%
19265@%%%%%%%%%%%%%%%%%%%%%%%%%%%%%%%%%%%%%%%%%%%%%%%%%%%%%%%%%%%%%%%%%%%%%%%%%%
19188@%%%%%%%%%%%%%%%%%%%%%%%%%%%%%%%%%%%%%%%%%%%%%%%%%%%%%%%%%%%%%%%%%%%%%%%%%%
19110@%%%%%%%%%%%%%%%%%%%%%%%%%%%%%%%%%%%%%%%%%%%%%%%%%%%%%%%%%%%%%%%%%%%%%%%%%%
19033@%%%%%%%%%%%%%%%%%%%%%%%%%%%%%%%%%%%%%%%%%%%%%%%%%%%%%%%%%%%%%%%%%%%%%%%%%%
18956@%%%%%%%%%%%%%%%%%%%%%%%%%%%%%%%%%%%%%%%%%%%%%%%%%%%%%%%%%%%%%%%%%%%%%%%%%%
18879@%%%%%%%%%%%%%%%%%%%%%%%%%%%%%%%%%%%%%%%%%%%%%%%%%%%%%%%%%%%%%%%%%%%%%%%%%%
18802@%%%%%%%%%%%%%%%%%%%%%%%%%%%%%%%%%%%%%%%%%%%%%%%%%%%%%%%%%%%%%%%%%%%%%%%%%%
18725@%%%%%%%%%%%%%%%%%%%%%%%%%%%%%%%%%%%%%%%%%%%%%%%%%%%%%%%%%%%%%%%%%%%%%%%%%%
18648@%%%%%%%%%%%%%%%%%%%%%%%%%%%%%%%%%%%%%%%%%%%%%%%%%%%%%%%%%%%%%%%%%%%%%%%%%%
18571@%%%%%%%%%%%%%%%%%%%%%%%%%%%%%%%%%%%%%%%%%%%%%%%%%%%%%%%%%%%%%%%%%%%%%%%%%%
18494@%%%%%%%%%%%%%%%%%%%%j%J%%%j%%J%%%%%%j%%J%%%%%%%%%%%j%J%%%%%%%%%%jJ%%%%jJ%%
18417@%%%%%%%%%%%%%%%%%j%%J%%%%%%j%J%%%%%%%%%%%%%%%%%%%%%%%%%%%%%%%%%%%%%%%%%%%%
18340@%%%%%%%%%j%%%J%%%j%J%%%j%%J%%%j%%J%%%%%%%%%%%%%%%%%%%%%j%%J%%j%%J%%j%%%%%%
18263a%%%%%%%%%J%%%j%J%%%%jJ%%%%%%%%%%%%%%%%%j%J%%%j%J%%%j%J%%%j%%J%%%%jJ%%%j%%J
18186@%%%%%%%%%%jJ%%%%%%%%%j%%J%%j%%%%%%%%%%Jj%%%%%J%%%%%%j%%J%%%%j%J%%%j%J%%%j%
18109a%%J%%j%J%%j%%%%J%%%j%%%%%%J%%%%jJ%%%%%%%%%j%%%%Jj%%%J%%%j%J%%j%%J%%%%j%J%%
18032@%j%%J%%j%%%J%%%%%%%%%%%%%%%%%%%%%%%%%%%jJ%%%%j%%J%%%j%J%%j%%%J%%%j%J%%%%%%
17955@%%j%%%%%%%%%%%%%%%%J%%%%%%%%%%%%J%%%%%%J%%%%JJJ%JJJK%%%jj%jjjjj%%%j%j%%Jj%
17877Aj%J%%%%%%%%%%%%J%%%%%%J%%%JJJJ%JJKKKKKLMLLK%klmllklkjjjjjjj%j%j%%%%%j%%%%%
17800B%%j%J%%%%%J%J%%%%JJJJJKJLKLLLMLKJklmlmklkkjjjjjjj%j%%j%%%%%%j%%Jj%%%%%Jj%J
17723B%%J%jJ%%J%%%JJJJ%JJJJ%%jjjjjjjjj%%%j%%%%%%j%%%%%j%%J%%%jJ%%%%j%J%Jj%j%J%%%
17646A%jJ%%%j%%J%%%%%%%%%j%%J%%%jJ%%%%j%J%Jj%j%J%%%%%%%%j%%JJ%%j%%J%%%j%J%%%j%J%
17569B%%%%%%%%j%%JJ%j%jJ%%%j%J%J%jj%J%Jj%%%J%%j%%J%%j%%JJ%%%jJJ%%j%%J%%j%jJ%Jj%j
17492CJ%J%jj%JJ%j%%%J%%j%%J%%%j%J%%j%jJJ%%j%%KJJ%%%JJ%%j%%JJjjj%JJ%jj%%J%%jjJ%Jj
17415Hj%%JJ%%j%JJJjjjJJ%%j%%JJ%jjJJKK%%%%KJ%jj%JK%jj%%JJjjj%JJ%jj%JJ%jjjJKK%j%%K
17338B1KJjj%KKJj%%JLJ%j%JKKJ%j%KLK%j%JLL%%jJLLK%%JMMMJJKMPONMMPJ0J1J1RJ0J3J8K1K2
17270B35K2K2K6L2L9M5M8N5O6Q2R9J17J31J50J75K06K33K41K12J42M0p2j67k27k45k32j97j61
17241A117j28j06r2q2p3o3n4m5l9l5l0k5j7j1onoonJNQQQRJ4K0K5K7K6K8L4M5N4O0O2O6P4Q9
17201I52J07J25J40J60J91K34K87L40L91M48N24O25P30P92P50N68K53j33m98p52q53q14o89n45
17176C333m28l51l07k71k37k02j72j53j38j25j06q3o0m4l7l4l3l0k5j8j3j0pnJPJ2J6J8K0K4L0
17142E72M0M8N4N8O3P3Q7J03J19J36J56J85K28K78L30L82M37N11O07P15P94P87O42L56k9m21
17115G311p25q77q72p56o04m69l81l28k93k55k17j83j60j49j37j19r3o8n0m2m1m1l7k9k4k1k2
17087C18k0j7j0mkkmkKPJ2J2J3J3J7K4K9L3L7M1M9O0P5R1J05J21J38J62J93K24K47K45K06J27
17052B540J6j04k05k67k81k56k12j68j36j17j05r3p8o5n5n2m9m4l5k6j8j5j6j7j5j2rqqj0j0pm
17017E9kmnpnk%jlnmk%Jjllk%J%kkk%JJ%kk%JK%jkjJJJjkj%JJ%jk%JK%jjjJJJ%kj%JJ%jkjJJ%j
16941@kjJJJjjjjJJJjk%JKJ%j%JKKJ%j%J%%jkjJJ%%jk%JJjjj%%J%%k%%J%%jj%JJ%jjjJJJjjjJJ
16864b%%j%%JJJ%jJKKJJj%%%%%jk%J%%jjj%J%%jj%%%%j%%%J%jjjJJ%%j%%JJ%j%jJJ%%jj%JJj%j
16787cJJJJ%j%%J%jj%%%Jj%j%%%%%j%%J%%jjJ%J%jjJ%J%%j%%J%%jj%%J%%j%J%Jj%jJ%J%jj%J%%
16710c%j%%J%%%%%J%%j%%%J%j%jJ%J%jjJ%J%j%jJJ%%j%%J%%%j%J%%%j%J%%%%jJ%Jj%j%%J%j%%%
16633cJJj%%%J%%jj%JJ%%j%%%J%j%J%Jj%%%%J%%%jJJ%J%%JJKJJJJK%Jjkkjjjjjj%%%%j%j%%%%j
16556a%%J%%j%%J%%%%%J%J%%%%JJJ%%JJKJJKKLMMLMMMKJkmnnmmllkkjjjjjj%j%%jj%%%Jj%j%J%
16479A%%%%%J%%%%JJJ%J%JKJKKKKLMMMMMLJjmnnnmllkljjjjjjj%j%%j%%%%%j%jJ%%%j%%J%%%%%
16402@J%%%%%JJ%J%%JKKJJJJJ%jkkjjjjjjj%%%%jj%%%%%%%%%%%j%%J%%j%jJ%J%j%%%J%j%%%Jj%
16325a%jJ%Jj%%%%J%j%%%%%%%%%J%j%j%J%%%%%J%%%j%%%Jj%%%J%%%j%%J%j%%%%%%%%%%Jj%j%JJ
16248@%%j%%%%%%%%%J%j%%%%%%%%%J%%%j%%J%%j%%%%%%%%%%%%%jJ%Jj%%%%%Jj%%%J%j%%J%Jj%j
16171a%J%%%%%%%%%%%%%%%%%%%J%%jJ%J%%%%%JJ%%%jj%j%j%%J%%%%%%%%j%%%Jj%%%%%%%%j%%Jj
16094a%%%J%%%%%%%%%j%%J%%%%j%J%%j%%J%%%%%%Jj%j%%J%%j%%J%%j%%%Jj%%%%J%%%j%J%%j%%%
16016aJ%%%jJ%%j%%%J%%%j%J%%%%%%%%%j%%J%%%j%J%%%%jJ%Jj%j%J%%%%%%%%%%%%%J%j%%%%%%j
15939a%%J%%%%%%%%%j%%J%%%%%%Jj%%%%J%%%%%%%%%jJ%%%j%%%%%%%%%%%%%%%%%%%%%%%%%%%%%%
15862@%%%%%%%%jJ%J%%j%%%%%%%%%%J%%%%%%j%%%J%%%j%%%%%%%%%%%%%%%J%j%%%%%%%%J%%%%j%
15785@%%%%%%%%%%%%%%Jj%%%%%%%%%%%%j%%%J%%%%%%%%%j%%J%%%%%%%%%%%%J%j%%%%%%%%%%%%%
15708@%%%J%j%%%%%%%%%J%j%j%J%%%%%%%%%%j%J%%%%%%%%%%%%%%%%%%%%%%%%%%%%%jJ%%%%%%J%
15631A%j%%%%%%%%%%%%%%%%%%%%%%J%%j%j%J%%%%%J%j%%%%J%j%%%J%%j%%%%%%%%%%J%%%%%%%j%
15554@%J%j%%%%%%%%%%%j%%J%%Jj%%%%%%%%%%%%%%%%%%%%%%%Jj%%%%%Jj%%%%Jj%%%%%%%%j%J%%
15477@%%%%%%%%%%%%%%%%%%%%%%%%%%%%Jj%%%%%%%%%jJ%%%%%%%%%%%%%%%%%%%%%%%%%%%%%%%%%
15400@%%%%%%%%%%%%%%%%%%%%%%%%%%%%j%%J%%%%%%%%%%%%%%%%%%%%%%%%%J%%%j%%%%%%%%Jj%%
15323@%%%%%%%%%%%%%%%%%%%%J%%%j%J%%%j%%%%%%%%J%%%%%j%%%%%%%%%%%%%%%%%%%%%%%%%%%%
15246@%%%%%%%J%%%J%%%J%J%J%%%%jjj%j%%%%%%%%%j%%%%%%%%%%%%%%%%J%j%%%J%j%j%%J%%%%%
15169@J%j%%%%%%%%%%%%%%%%%%%%%%%%%%%j%%%J%%%%%%%%%%%%%%%%%%%%%%%%%%j%J%%%%j%%J%%
15092@%%%%%%%%%%%%%%%%%%%%%%%%%%%%%%%%%%%%Jj%%%%%%%%%%%%%%J%%j%%%J%%j%%%J%j%%%%%
15015@%%%%%%%%%%%%%%%%%%Jj%%%%%%%%%%%%%%%%J%%%j%%J%j%%%%%%%%%%%%%%%%%%%%%%%%%%%%
14938@%%%%%%%%%%%%%%j%%%%J%%j%%J%%%%%%%%%%%%%%%%%%%%%%%%%%%%%%j%%%%J%%%%j%%J%%j%
14861a%%%J%%%%%%%%%%%%%%%%%%%%%%%%%%%%%%%%%%%%%%%%%%%J%%j%%%%%%%%%%%%%%%%%%j%%J%
14783@%%%%%%%%%%%%%j%J%%%%%j%J%%%%%jJ%%%j%J%%%%%%%%%%%%%%%%%%%%%%%%%%%%%%%%%%%%j
14706a%J%%j%J%%%%%%%%%%%j%J%%%%%%%%%%%%%%%%%%%%%%%%%%%%%jJ%%%%%%%%J%%%%%%j%%%%%%
14629@%%%%%%%%%%%%%%j%%%J%%%%J%j%%%%%%%%%%%%%%%%%%%%%%%%%%%%%%%%%%J%%%j%%%%%%%%%
14552@%%%j%%J%%%%%%%%%j%%J%%%%%%%%%jJ%%Jj%%%%%%%%%%J%j%%%%%%%%%%%%%%%%%%%j%J%%%%
14475@%%%%%%%%%%%%%%%%%%%%%%%%%%%%%%%%%%%%%%%%%%%%%%%%%%%%%%%%%%%%%%%%%%%%%%%%%%
14398@%%%%%%%%%%%%%%%%%%%%%j%%J%%j%J%%%%%%%%%%%%%J%j%%%%%%%%%%%%%%%%%%%%%%%%%%%%
14321@%%%%%%%%%%%%%%%%%%%%%%%%%%%%%%%%%%%%%%%%%%%%%%%%%%%%%%%%%%%%%%%%%%%%%%%%%%
14244@%%%%%%%%%%%%%%%%%Jj%%%%%%%%%%%%%%%%%%%%%%%%%%%%%%%%%%%J%%%%j%%%%%%%%%%%%%%
14167@%%%jJ%%%%%%%%%%%%%%%%%%%%%%%%%%%j%J%%%%%%%%J%%j%%%%j%%%%J%%%%%j%%%J%%%%j%%
14090a%%J%%%%%%%%%%%%%%%%%%%%%%%%%%%%%%%%%%%%%%%%%%%%%%%%%%%%%jJ%%%%jJ%%%%%%%%%%
14013@%%%%%%%j%%J%j%%%J%%%jJ%%%%j%%J%%%%%%%%jJ%%%%%%%%%%%%%%%%%%j%%J%%%%%%%%%%%%
13936@%%%%%%%%%%%%%%%%jJ%%%%%%%J%j%%%%%%%%%%%%%%%%%%%%%%%%%j%%J%%%j%%%%%J%%%%%%%
13859@%%%%%%%%%%%%%%%%%%%%%%%%%%%%%%%%%%%%%%%%%%%%%%%%%%%%%%%%%%%%%%%%%%%%%%%%J%
13782Aj%%%%J%%j%%%%%%%%J%j%%%%%%%%%%%%%%%J%%j%%%J%j%%%%%%%%%%J%j%%%%Jj%%%%%Jj%%%
13705@%%%%%%%%%%%%%J%j%%%%%%%j%J%%%%%%%%%%%%J%%j%%%%%%%%%%%%%%%%%%%%%%%%%j%%J%%%
13628@%%%%%%%%j%%%%%%J%%%%%%%%%%%%%%%%%%%%%%j%J%%%%%%%%%%%%%%%%%%%%%%%j%%J%%%%%%
13550@%%j%J%%%%%%%%%%%%%%%%%%%%%%%%%%%%%%%%%%%%%%%%%j%J%%%%%%%%%%%%%%%%%%%%%%%%%
13473@%%%%%%%%%%%j%%%%%%J%%%%%%%%%%%%j%J%%%%%%%%%%%%%%%%%%%%%%%%%%%%%%%%%%%%%%%%
13396@%%%J%j%%%%%%%J%%%%jJ%%%%j%%%%%%%%%%%%%%%%J%%%%%%%%%j%J%%j%%J%J%%%%%%%%%J%%
13319CJ%%%JJ%JJJKJKKKKKMMMNOPPPOMKjmoopponmmllkkkjjjjjj%%%%%%JJJJJ%JJJJJJKJKJKJJ
13242C1%J%J%%JJJKLLLLNMNNMLLJ%jkklmmnnmmllkkkjj%j%j%%Jj%jjkkkjkjjj%jjjjj%j%%%%J%
13166A1JJJKKKKKLMMNOPPPONLjlooqpoonnlllkkkkjjjjj%j%j%%j%%%%j%%%%%j%%%%%%%jJ%%%%%
13090A%j%%%%%%J%j%%%%%%%%%J%j%%%%%%%%%%%%%%%%%%%%%%%%%%%%%%%%%%%%%%%%%%%%%%%%%%%
13013@%%%%%%%%%j%J%%%%%%%%%%%%%%jJ%%%%%%%%%%%%%%%%%%%%%%%%%%%%%%%%%%%%%%%%J%j%%%
12936@%%%%%%%%%%%%%%%%%%%%%%%%%%%%%%%%%%%%%%%%%%%%%%%%%%%%%%%%%%%%j%%J%%%%%%%%%%
12859@%%%%%%%%%%%%%%%%%%%%%%%%%%%%%%%%%%%%%%%%%%%%%%%%%%%%%%%%%%%%%%J%j%%%%%%%%%
12782@j%%J%%%%%%%%%%%%%%%%%%%%%%%%%%%%%%%%%%%%%%%%%%j%%%%%%%%%J%%%%%%j%%%%J%%j%%
12705a%%%%%%%J%%%%%%%%%%%%%%%%%%%%%%%%%%%%%%%%%%%%%%%%%%%%%%%%%%%%%%%%%%%%%%%%%%
12628@%%%%%%%%%%%%%%%%J%j%%%%%%Jj%%%J%j%%%%%%%%%%%%%J%j%%%%%%%%%%%%%%%%%%%%%%%%%
12551@%jJ%%%%%%%%%%%%%%%%%%%%%%Jj%%%%%%%%%%%%%%%%%%%%%%%%%%%%%%%%j%%%J%%j%%J%%%%
12474@%%%%%%%%%%%%%%%%j%J%%%%%%%%%%%%%%%%%%%%%%%%%%%%%%%%%%%%%%%%%%%%%%%%%%%%%%%
12397@%%%%%%%%%%%Jj%%%%%%%%%%%%%%%%%%%%%%%%%%%%%%%%%%%%%%%%%%%%%%%%%%%%%%%%%%%%%
12320@%%%%%%%%%%j%%J%%%%%%%%%%%%%%%%%%%%%%%%%%%%%%%%%%%%%%%%%%%%%%%%%%%%%%%%%%%%
12243@%%%%%%%%Jj%%%%%%%%%%%%%%%%%%%%%%%%%%%%%%%%%%%%%%%%%%%%%%%%J%%%%%%J%%%%j%%%
12165A%%j%%%%%%%J%%%%%J%%%j%%%%j%%%%J%%j%%%%%%%%%%%%%%%%%%%%%%%%%%%%J%%%%%%%%%%%
12088A%%j%%%%%%%%%%%%%%%%%%%%%%%%%%%%%%J%%j%%%%J%%%%%J%%%%%%%%%%%j%%%%%%%%%%J%%%
12011B%%%J%%%j%%j%%%%%%%%j%%%%%%%%%%%%%%%%%%%%J%%%%%%%%%%J%%%%%j%j%%%Jj%%%%%%%%%
11934@%%%%%%%%%%%%%%%%%%%%%%%%%%%%%%%%%%%%%%%%%%%%%%%%%%%%%%%%%%%%%%%%%%%%%%%%%%
11857@%%%%%%%%J%j%%%%%%%%%%%%%%%%%%%%%%%%%%%%%%%j%J%%%%%%%%%%%%%%%%%%%%%%%%%%J%j
11780@%%%J%j%%%%%%%%%%%%%%%%%%%%%%%%%%%%%%%%%%%%%%%%%%%%%%%%%%%%%%%%%%%%%%%%%%%%
11703@%%%%%%%%%%%%%%%%%%%%%%%%%Jj%%%%%%%%%%J%j%%%%%%%%%%%J%j%%%%%%%%%%%%%%%%%%%%
11626@%%%%%%%%J%%j%%%%%%%%%%%%%%%J%%%j%J%%%%%%%%%j%J%%%%%%%%%%%%%%j%%%%%%%%%%J%%
11549Aj%%%J%%j%%%J%j%%%%%%%%%%%%%%%%%%%%%%%%%%%%%%%%%%%%%%%%%J%j%%%%%%%%%%%%%%%%
11472@%%%%%%%%%%%%%J%%j%%%%%%%%%%%%%%%%%%%J%%%j%%%J%%j%%%%%%%%%%%%%%%%%%%%%%%%%%
11395@%%%%%%%%%%%%%%%%%%%%%%%%%%%%%%%%%%%%%%%%%%%%%%%%%%jJ%%%%%j%%J%%%%%%%%%%%%%
11318@%%%%%%%%%%%%%%%%%%%%%%%%%%j%%J%%%%%%%%%%%%%%%%%%%%%%%%%%%%%%%%%%%%%%%Jj%%%
11241@%%%%%%%%%%%%%%%%%%%%%%%%%%%%%j%%J%%%%%%%%%%%j%J%%%%%%%%%%%%%%%%%%%%%%%%%%%
11164@%%%%%%%%%%%%%%%%%%%%%%%%%%%%%%%j%%%J%%%%%%%%j%%%J%%%%%%%%%%%%%%%%%%%%%%%%%
11087@%%%%%%%%%%%%%%%%%%%%%%%%%%%%j%J%%%%j%J%%%%%%%%%%%%%%%%%%J%j%%%%%%%%%%%%%%%
11010@%%Jj%%%%%%%%%%%%%%%%%%%%%%%%%%%%%%%%%%%%%%%%%%%%%%%%%Jj%%%%%%%j%%J%%%%%%%%
10932@%%%%%%%%%%%%%%%%%%%%%%%%%%%%%%%%%%%%%%%%%%%%%%%%%%%%%%%%%%%%%%%%%%%%%%%%%%
10855@%%%%jJ%%%%%%%%%%%%%%%%%%%%%%%j%%%J%%%%%%%%%%%%%%%%%%%%%%%J%%%J%%J%%j%%j%%%
10778Aj%J%j%%%%%%%%%%%%%%%%%%%%%%%J%%j%%%J%%%%%%%j%%J%%%%%%%%%%%%%%%%%%%%%%%%%J%
10701B%%%%J%%%j%j%%%%%%%%j%%%%%J%%%%%%%%%%%%%%%J%%%%%%%J%%%j%%%%%j%%%Jj%%J%%%j%%
10624A%%%j%%%%%%%%%J%j%%%%%%%%%%Jj%%%%%J%%%%%%%%%%%%%%%jJ%%%J%%j%%%%%J%%%%%j%%%%
10547A%%%%j%%%%%%%%%%%%%%%%%%J%%%j%%%%%%%%%%%%%%%%%%%%%%%%%%%%%%%%%%%%%%%Jj%%%%%
10470@%%j%J%%%%%%%J%%%%%%%%%%%%%%%%%%%%%%%%%%%j%%%%%%%%%%%%%%J%j%%%%%%%%%%%%%%%%
10393@%%%%%%%%%%%%%%%%%%%%%%%%%%%%%%%%%%%%%%%%%%%%%%%%%%%%%%%%%%%%%%%%%%%%%%%%%%
10316@%%%%%%%%%%%Jj%%%%%%%%%%%%%%%%%%%%%%%%%%%%J%j%%%%%%%%%%%%%%%%%%%%%%%%%%%%%%
10239@%%%%%%%%%%%%%%%%%%%%%%%%%%%%%%%%Jj%%%%%%%%J%%j%%%%%%%%%%%%%%%%%%%%%%%%%%%%
10162@%%%%%%%%%%%%%%%%%%j%%J%%%%%%%%%%%%%%%%%%%%%%%%%J%%j%J%%%%%%%J%%J%J%%%j%j%%
10085B%j%%%%%j%%%%%%%%%%%%%%%%%%%%%%%%%%%%%%%%%%%%%%%%%%%%%%%%%%%%%%%%%%%%%%%%%%
10008@%%%%%%%%%%%%%Jj%%%%%%%%%%%%%%%%%%%%%%%%%%%%%J%%j%%%%%J%%%%J%%j%%%%%%%%%%%j
9931@%%%%%%%%%%%%%%%%%%%%%%%J%%%j%%%%%%J%%%%%%%%%%%%J%%%%%%%%%%j%%%%%%%%%%%j%J%%
9853Aj%%%J%%j%%J%%%%j%J%%%%j%%%%%%J%jJ%%%%%%%%J%%%%%%%%%%j%%%%%%%%%%%j%%%%%%%%%J
9774Aj%%%%%%%%%%J%%%%j%%%%%%%J%%%j%J%j%%%%J%%%%%%%%%j%%%%%%%%%%%%%%J%%j%%%%%%%%%
9696@%%%%%%J%%j%%%%%%%%%%%%%%%%%%%%%%J%%j%%%J%j%%%%%%%%%%%%%%%%%%%%%%%%%%%%J%j%%
9618@%J%%j%%%%J%j%%%%Jj%%%J%%j%J%%%j%%%%%%%%%%%%%%%%%%%%%%%%%%%%%%%%%%%%%%%%%%%%
9540@j%J%%%%%%%%%%%%J%j%%%%%%%%%%%%%%%%%%%%%%%%%%%%%%%%%j%J%%%%%%%%%%%%%%%j%%J%%
9462@%%%%%%%%%%%%%%%%%%%%%%%%%%%j%J%%j%%J%%%%%%%%%%%%%%%%%%%%%%%%%J%%j%%%%%%%%%%
9384@%%%%%%%Jj%%%%%%%%%%%%%jJ%%%%%%%%%%j%%J%%%%%%%%%%%%%%%%%%%%%%%%J%%%j%J%%%j%%
9306@%%%%%%%%%%%%%%%%%%%%%%j%%J%%%%%%%%%%%%%%%%%%%%%%%%%%%%%%%%%%%%%%%%%%%%%%%%%
9228@%%%%%%j%J%%%%%%%%%%%%%%%%%%%%%%%%%%%%j%J%%%%%%%%%%%%%%%%%%%%%%%%%%%%%%%%%%%
9150@%j%J%%%%%%%%%j%%J%%%%%%%%%%%%%%%%%%%%%%jJ%%%%%jJ%%%%jJ%%%j%%J%%%%%%%%%%%%%%
9071@%%%%%%%%%%%%%%j%J%%j%%%%J%%%%%%j%%%J%%%%%%%%%j%%%%%%%%%J%%j%J%%%%%%%%%%%j%%
8993a%%%%%%%%%%%J%%j%%%%%Jj%%%%%%%%%%Jj%%%%%Jj%%J%%%j%%J%%%j%J%%%%j%%%%%%%J%j%%%
8915a%J%%%%%%%%%%%%%%%%%%%%%%jJ%%j%%%%%%%%%J%%j%%J%%%%j%%J%%j%%J%%%%%%%%%%%%%%%%
8837@%%%%j%J%%%%j%J%%%j%%%%%%%%%%%%%%%%J%%%%%%%%%%%%%%%%%%%%%%%%%%%%%%%%%%j%J%%%
8759@%j%%J%j%J%%%%%%%%%%%%%%%%%jJ%%Jj%%%%%%%j%J%%%%%%%%%%%%%%%%%%%%%%%%%Jj%%%%%J
8681A%j%%J%%%%%%%%%%%%%%%%j%%J%j%%%%%%%%%%%%%%%%%%%%%%J%%j%J%%%%j%%J%%j%J%%%%j%%
8603@%%%%%J%%%j%%J%%%%%%%%%%%%%%%j%%J%%j%%%J%%%%%%%%%%%%%%%%jJ%%%%jJ%%%%%%%%%%%%
8525A%%%%%%%J%%j%%%%%%%%%%%%%%%%%%j%%J%%%%%%%%%%%%%%%%%%%%%%%%%%J%%j%J%%j%%%J%%j
8447A%%%J%%j%J%j%%%%%%%%%%J%%j%%%%%%%%%J%j%%%%%%%%%%%%%%%%%Jj%%%%J%%%%%%%%%%%%%%
8369Bj%%J%%j%%J%%%%%%J%%j%%%%%%%%%J%%j%%%%%%%%%Jj%%%%%%%%%%J%%j%%%J%%%%%%%%j%J%%
8290C%%%%%%Jj%%%%%%%%%J%%j%%J%%%j%%%J%j%%%J%j%%%%%%%%%%%%%%%%J%%%jJ%%%%%jJ%%j%%J
8212D%%%%%%%%%%%%%J%j%%%J%%%j%%J%j%%J%%%%jJ%%%%jJ%J%%j%%J%%%%%%J%%%%%J%%J%%J%J%%
8134A1JJJJJJKKKKJ%%%kjlkjk%jjj%j%%%%j%%J%%j%J%J%%J%JJJJJJKKKKJJ%J%jjjjj%j%%%%JKJ
8057B8JKKLKKJJJ%%%kkkjkjkkjj%J%J%J%JJ%%%JJK%J%JJ%Jjjjkkjkjkj%j%j%%JJJ%JKKKLLLLMM
7980E4NLLKJJ%j%kjjklmmnmmklkkkj%jj%j%JJJ%JKJKKKKJJJ%%jjj%j%jj%%%jjjk%%%%%%JKJKJJ
7903C8JJKJJJ%jjjlklkkjjkj%%J%JJ%KJJ%%jkjjjkkjjjjjj%j%%j%%%%%%%%%J%J%%%JJJK%JKJKK
7826B9KJ%jjjlkkjj%jkj%j%%%jj%J%%j%jJ%%%%j%%%%%%%%J%j%%%J%%j%%J%%%jJ%%%%%%%J%%j%%
7749A3%Jj%%%%J%%%jJ%%%j%%J%%%%%%%Jj%%%J%j%%%%J%%j%J%%%%%%%%%%%%%%%%%jJ%%%%%J%%%%
7672A6j%J%%%j%%J%%%%%J%%%j%J%%%j%%J%%j%%J%%%%%%%%%%%%J%%j%%J%%%%%%J%%j%%J%%j%%%%
7595A8Jj%%%J%%%%%%Jj%%%%J%j%%%J%%j%J%J%%j%%J%j%%%J%%%j%J%Jj%%J%%%j%%J%%%%%%J%j%%
7518B2%J%%j%%J%%%%%%%Jj%%%J%%j%%JJj%%%%J%%%%%%J%%j%J%%%j%J%%j%%%J%%%%%%J%j%%%J%%
7441B7j%%J%%%%%%J%%j%JJ%%j%%J%%%%%%J%%%jJ%%%j%J%J%j%%J%%%j%JJ%%%jJ%J%%jjJ%J%%jJ%
7364C3Jj%%%%J%%j%JJ%%%jJ%J%%%%%J%%%%%J%%%%%JJJ%%%JJ%J%%JKJ%J%JKKKJJLLMMMLNOPQRJ0
7288A24J0J3J5J5J4J1N%oj1j4j6j6j4j1rqqponlllllkjj%kjj%%J%j%%JJJJ%JJKKJKJLLMMLMNPQ
7224A08RRJ0J2J4J5J4J2OKnrj4j6j6j5j3j0qpponmlllmkkjjjjkj%%Jjj%%JJj%j%%J%%j%%J%%j%
7161E1%J%%%j%JJ%j%jJJ%%%j%JJ%j%%%JJj%jJJJ%jj%JK%%j%JJ%%%%%JJ%j%%JJJj%%JJ%%j%%JJ%
7083F4%j%JJJj%jJJJ%j%%K%%%j%JJJj%jJJJ%j%%JJ%%j%JJJ%j%JJK%j%%JJJjj%JK%%jjJJK%j%%J
7006H2K%%j%JKJ%jjJJK%jj%JK%%k%%JJ%jjjJJ%j%JMNMMKKLLKJ%%JJK%jjj%JJjkjJJJ%jj%JK%%j
6929A21%JKJ%k%JJK%jj%JKJjjjJKJ%jJLNONLKKLMK%j%KKK%jj%JK%kkjKJJjjj%KK%j%JMMKJ%KLM
6853A91LJ%%LNMLJJLMNLJ%JLMLKjJLMNK%%LMNM%%%MNMJ%%LNMLJ%KNONKJLORQNLNPJ0J1RNNPJ1
6781D26J2J1POPJ1J3J3ROOJ0J4J5J3RQJ1J5J8J7J4J1J4J9K4K3K1J8J9K4L0L3L2K9K9L4M3M9N0
6740A173M9M9N7O9Q1Q8R0R2J02J18J38J53J65J75J95K26K66L09L48L86M30M85N51O23O95P79
6713G892Q88J035J218J422J636J862K116K406K693K871K791K318J420J99j113k242k977l237
6694B3198l095k715k269j881j587j371j196j039r00p83o92o16n40m60l76l02k45k06j78j52j25
6672B470r4o7m5k7j0QL0N2P3R0J06J25J49J82K19K58K98L39L87M43N06N72O41P23Q27R65J136
6644A0356J329J534J751J996K276K570K790K797K454J687N56p46j951k817l215l173k838k393
6625A4963j982j667j438j255j093r44q23p30o59n88n08m21l44k87k52k28k06j78j50j30j19j11
6602H50j01q6o9n7n2n3n2m6l7k8k6k8l0k9k2j5j1j4j8j8j5rnoj0j2j0pjknrj0oj%koqnjJJlmm%
6553h1LLJkljLNL%kjJMKjlljKK%lmlJJ%kmljJJjlljJKJjljKKKjkkJKK%kk%KLJjj%KMKJjjJLKJj
6476g5kJKKKjj%JKJjkkjJK%kkjJK%%k%JKJ%j%JLMKKJLNPNMJJ%Jjklmj%%%kkk%%%kkkj%JjjkjJJ
6399e8Jjk%%JJ%jk%KJJjj%JJJ%%JKLLKKKMONNKJ%%jjklkj%%jklj%%jkkk%%%jjk%J%%jj%%JJjjj
6322d8JJ%%jj%JJ%jj%JJ%%jjJJJ%%j%JJ%%jjJJJj%j%JJ%jj%JJJjj%J%J%jj%JJ%%j%JJ%%j%%JJ%
6245d0j%%J%Jj%jJJ%%%%%JJ%j%%%J%%j%JJJj%j%JJ%%j%J%Jj%jJJ%%j%%JJ%%j%JJ%%jjJJJ%j%%J
6168c1%Jj%%%J%j%jJJJ%%%%JJJ%j%JJ%Jj%JJJJ%%JJKJJ%KKKLKKLLMNNOOQJ0J0J2J2J4J4J4J1O%
6099A41qj3j5j6j4j3j2j0qpnnnmmlkjkkkk%%jj%%%J%%%%JJJJJ%KKKLKKLMMNONPRJ0J2J2J3J4J4
6037A23J1PJoj1j5j6j5j3j2j0rpoonmnllkjkkjjj%jkj%%%%jj%%%%%j%%J%%j%%%J%%j%%%J%%%%%
5969b0%%%j%%J%%j%%JJj%j%J%Jj%%%J%%j%%%Jj%%%%J%j%%%J%%%%%%%%%%%JJ%j%jJ%%%%%%%J%j%
5892a8%J%%%%jJ%J%j%%%J%j%%%J%%j%%J%%%j%%J%%%%%%%%%%J%Jj%j%J%J%j%J%%%%%%%%%%jJ%%%
5815a4%%%%J%%j%J%J%j%jJ%%%%jJ%%%%%%%%J%j%J%%%%%%J%%j%jJ%Jj%%%%J%%j%%J%j%%J%%%j%%
5738a2J%%%j%J%%%%%%%%%%%%%%%%%%%J%j%%%J%%j%%%J%%%%%%%j%%J%%%%j%%J%%jJ%J%%j%%J%%%
5661ij%J%%%%jJ%%%%%%J%%%%%%J%%J%JJJ%%%%%jjj%j%%%%j%J%%%j%%J%%j%%%%%%%%%%J%j%%%%%
5583h%%%%J%%j%%J%%j%%%J%%%%%%%%%%%%%%%%%%%%%%%%%%Jj%%%%%%%J%%%j%%%J%%%j%%J%%%%%%
5505f%%%%%%J%j%%%%Jj%%J%%%%jJ%%%j%%%J%j%%%J%%%j%J%%%j%%%%%%%J%%%%%%J%Jj%%%%%%%j%
5427eJ%%%%%%%%%j%J%%%%%%%%%j%%J%%%%%%%%%%%%%%%%%%%%%%%%%%J%%j%%%Jj%J%%%%j%J%%%%j
5349dJ%%%%%%%%%%%%%%J%%%%%%%%%%%J%J%%JJJJ%%%Jj%jjjj%%j%%jJ%j%%%%%%%%%%%J%j%%%J%j
5270b%%%J%%%%J%JJ%JJJJ%%j%jjjj%j%%j%%j%%%%%%%%Jj%%%%%Jj%%%%%%%%%%%Jj%%%%%%%%%%%%
5192b%%%%J%%%%%%%%%j%%J%%j%%J%%%%%%%%%%%%%%%%%%%%%%%%%%%%%%%%%%%%j%J%%%%%%%%%%%%
5114a%%%%J%%j%%%%%%%%%%%%%%%%%%%%%%%%%%%%%%Jj%%%%%%%%%%%%%%%%%%%%%%%%%%%%%%Jj%%%
5036a%%J%j%%%J%j%J%%j%%%J%%%%j%%%%%%%%Jj%%%%%Jj%%%J%%%j%%%%%%%J%%%%%%%%%%%%%%%%%
4958@%%%%%%%%%%%%%%%%%%%%%%%%%%%%J%j%%%%%%%%%%%%%%%%%%%%%%%%%%%%%%%%%%%%%%%%%%%%
4880@%%%%%%j%%J%%%%%%%%%%%%%%%%%%%%%%%%%J%%%j%%%%%%%%%%%%%%%%%%%%%%%%%%%%%%%%%%%
4802@%%%%%%%%%%%%J%j%%%%%%%%%%%%%%%%Jj%%%%J%j%%%J%j%%%%Jj%%%%%%%%%%%%%%%%%%%%%%%
4724@%%%%%%%%%%%%%%%%%%%J%j%%%%J%%%jJj%%%%%%J%j%J%%%%%%%j%%%%%J%j%%%%J%j%%J%%%%%
4646A%%%%%%%%%%%%%%%j%%%%J%j%%%%Jj%%%%%%%%%%J%%j%%%%%%%%J%%%%%j%%%%%%%%%%%%%J%%%
4568AjJ%%%%j%%J%%%%%%%%j%%%Jj%%%%%%%%%%J%%j%%%%%%%J%%%%%%%%%%j%%%%%%%J%%%%%%%%%%
4489A%%%%%%j%%%%J%j%%%Jj%%%%%%%%%%J%%%j%%Jj%%%%%J%j%%%%%%%%%%J%%%%%%%%%%%%%%j%%J
4411A%%%%%%%%j%%%%%%%%%J%%j%%%%%%%%%J%%%%%%%j%%%J%%%j%%%%%%%J%%%%%%%%%j%%%J%%j%%
4333@J%%j%%%%%%%%%%Jj%%%%%%%%J%%%j%%%%%%%%J%%%j%%J%%%%j%%%%%%%%%%%%%%%%%%%%%%%%%
4255@%%%%%%%%%%j%%J%%%%%%%%%%%%%%J%j%%%%%%%%%%%%%%%%%%%%%%%%%%%%%%%%%%%%%%%%%%%%
4177@%%%%J%j%%%%%%%%%%%%%%%%%%%%%%%%%%%J%j%%%%%Jj%%%J%%%%%%%%%%%%%%%j%%J%%%j%%%J
4099A%%j%%%%%%%%%%%%%%%%%%%%J%j%%%%%%%%%J%%%%%%%J%j%%%%%%%%%%%%%%%%%%%j%%%Jj%%%%
4021@%%%%J%%j%%%J%j%%%J%%%j%J%%%%j%J%%%%%%%%J%%%%%%%j%%%%%%%%%%%%%%j%%J%%%%%j%%%
3943@%%%%%%J%%%%j%J%%%%%%J%j%%J%%%j%%%%%%%%%%%%%%%%%%%%%%%%j%%%J%%j%%%%%%%%%%%%%
3865@%%%%%%%%%%%%%%J%%%%%%%j%%%%%%%%%%%Jj%%%%%Jj%%%%%%%%%%%%%%%%%%%%%%%%%%%%%J%%
3786Aj%%%%%%%%%%%%%%%%%%%%%%%%%j%J%%%%%%%%%%%%%%%%%%%%%%%%jJ%%%%%%%%%%%%%%%%%%%%
3708@%%%%%%%%%%%%%%%%%%%%%%%%%%%%%%%%%%%%%%%%%%%%%%%%%%%%%%%%%%%%j%J%%%%%%%%%%%%
3630@%%%%%%%%%%%%%%%%%%J%j%%%%%%%%%%%%%%%%%%%%%%%%%%%%%%%%%%%%%%%%%%%%%%%%%%%%%%
3552@%%%%%%%%%%%%%%%%%%%%%%%%%J%%%j%%%%%%%%%%%%%%%%%%%%%%%%%%%%%%%%%%J%%j%%%%%%%
3474@%%%%%%%%%%%%%J%%%%j%%%J%%%%%%j%%%%%%%%%%%%%%%%%%%%%%%%%%%%%%%%%%%%%%%j%%J%%
3396@%%J%%%j%%%%%%%%%%%Jj%%%%J%j%%%%%%%%%%%%%%%J%%j%%%%%%%%%%%%%%%%%%%%%%%%%%%%%
3318@J%j%%%J%j%%%%%%%%%%%%J%%%%j%%%%%%%%%%%%%%%%%%%%%%%%%%%%%%%%%%%%%%%%%%%%%%%%
3240@%%%%%%%%%%%%%%%%%%%%%%%%%%%%%%%%%%%%%%%%%%%%%%%%%%%%%%%%%%%j%%%%%%J%%%%%%%%
3162@%%%%%%%%%%%%%%%%j%%%J%%%%%%%%%%%%%%%%%%%%%%%%%%%%%%%%%%%%%%%%%%%%%%%%%%%%%%
3084@%%%%%%%%%%%%%%%%%%%%%%%j%%%%%J%%%%j%%%%%%%%%%%%%%J%%%%%%%j%J%j%%%J%%%%%%%%%
3005@%j%%J%%j%%%J%%%%%%%%%%%%%%%%%%%%%%%%%%%J%%%J%%%%%J%%%%%J%J%J%J%JJJKKKKLMMNN
2927C9OPOOMLJjmnononnmllkkkkjk%jjj%j%J%JJ%JJJ%JJJJKJJKJJ%J%%%%%%%j%J%JJ%JJJKJKLK
2850D4LLLLKJ%%jjklklkkkkjjkjj%j%%%%%j%%%j%jkjjjjkjjjjj%jjjj%%j%%%%J%JJJJJKKLLLMM
2773C8ONOONLJjlmooonnmlllkkkjjkjj%j%j%%j%%%j%%%j%%%j%%%%%%%j%%%%%%%%%%%%%j%%%%%%
2696A%%%%%%%%%%%%%%%%%%%%%j%%%%%%J%%%%%%%%%%%%%%%%%%%%%j%%%%%%J%%%%%%%%%%%%j%%%%
2618@%%%%%%%J%%%%%%%j%%%J%%%%j%%%%%%%%%%%J%%%%%j%%%%%%%%%J%j%%%%%%%%%%%%%%%%%%%%
2540@%%%%%%%%%%%%%%%%%%%%%%%%%Jj%%%%%%%%%%%%%%%%%%%%%%%%%%%%%%%%%%%%%%%%%%%%%%%%
2462@%jJ%%%%%%%%%%%%%%J%%j%%%%%%%%%%%%%%%%%%%%%%%%%%%%%%%%%%%%%%%%%%%%%%%%%%%%%%
2384@%%%%%%%%%%%%%%%%%%%%%%%%%%%%j%%J%%%%%%%%%J%j%%%%%%%%%%%%%%%%%%%%%%%%%%%%%%%
2306@%%%%%%%%%%%%%%%%%%%%%%%%%%%%%%%%%%%%%%%%%%%%%%%%%%%%%%%%%%%%%%%%%%%%%%%%%%%
2228@%%%%%%%%%%%%%%%%%%%%%%%j%%J%%%%%%%%%%%%%%%%%jJ%%%%%%%%%%%%%%%%%%%%%%%%%%%%%
2149@%%%%%%%%%%%%%%%%%%%%%%%%%%%%%%%%%%%%%%%%%%%%%%%%%%%%%%%%%%%%%%%%%%%%%%%%%%%
2071@%%%%%%%%%%%%%%%%%%%%%%%%%%%%%%%%%%%%%%%%%%%%%%%%%%%%%%%%%%%%%%%%%%%%%%%%%%%
1993@J%%j%%%%%%%%%%%%%%%%%%%%%%%%%%%%%%%%%%%%%%%%%%%%%%%%%%%%%%%%%%%%%%%%%%%%%%%
1915@%%%%%%%%%%%%%%%%%%%%%%%%%%%%%%%%%%%%%%%%%%%%%%%%%%%%%j%%J%%%%%%%%%%%%%%%%%%
1837@%%%%%%%%%%%%%%%%%%%%%%%%%%%%%%%%%%%%%%%%%%%%%%%%%%%%%%%%%%%%%%%%%%%%%%%%%%%
1759@%%%%%%%%%%%%%%%%%%%%%%%%%%%%%%%%%%%%%%%%%%%%%%%%%%%%%%%%%%%%%%%%%%%%%%%%%%%
1681@%%%%%J%j%%%%%%%%%%%J%%%j%%%%%%%%%%%%%%%%%%%%%%j%%J%%%%%%%%%%%%%%%%%%%%%%%%%
1603@%%%%%%%%%%%%J%%%%j%%%%%%%%%%%%%%%%%%%%%%%%%%%J%%j%%%%J%j%%%%%%%%%%%%%%%%%%%
1525@%%%%%%%%J%%%j%%%%%%%%%%%%%%%%%%%%%%%%%%%%%%%%%%%%%%%%%%%%%%%%%%%%%%%%%%%J%%
1446A%%%j%%%%%%%%%%J%j%%%%%%%%%%%%%%%%%%%J%%%%j%%%%%%%%%%%%%%%%%%%%%%%%%%%%%%%%%
1368@%%%%%%%%%jJ%%%%%%%%%%%%%%%%%%%%%%%%%%%%%%%%%%%%%%%%%%%%%%%%%%%%%%%%%%%%%%%%
1290@%j%%J%%%%%J%%%j%%%%%%%%%%%%%%%%%%%%%%J%j%%%%%%%%%%%%%%%%%%%%j%%%%J%%%%%%%%%
1212@%%%%%%%%%%%%%%%%%%%%%%%%%%%%%%%%%%%%%%%%%%j%J%%%%%%%%%%%%%%%%%%j%%J%%%%%%%%
1134@%%%%%%%%%%%%%%%%%%%%%%%%%%%%%%%%%%%%%%%%%%%%%%%%%%%%%%%%%%%%%%%%%%%%%%%%%%%
1056@%%%%%%%%%%%%%%%%%%%%%j%J%%%%%%%%%%%%%%%jJ%%%%%%%%%%jJ%%%%%%%%%%%%%%%%jJ%%%%
978@%%%%%%%%%%%%%%%%%%%%%%%%%%%%%%%%%%%%%%%%%%%%%%%%%%%%%%%%%%%%%%%%%%%%%%%%%%%%
899@%%%%%%%%%%%%%%%%%%%%%%%%%%%%%%%%%%%%%%%%%%%%%%%%j%%%J%%%%%%%%%%%%%%%%%%%%%%%
820@%%%%%%%%%%%%%%%%%J%%j%%%%%%%%%%%%j%%J%%%%%%%%%%%%%%%%%%%%%J%%j%%%%%j%%%J%%%%
740@%%%%%%%%%%%%%%%%%%%%%%%%%%%%%%%%j%%J%%%%%%%%%%%%%%%%%%%%%%%%%%%%%%%%%%%%%%%%
661@%%%%%%%%J%j%%%%%j%%%J%%%%%%%%%%%%%%%%%%%%%%%%%%%%%%%%%%%%%%%%%%%%%%%%%%j%%%J
582@%%%%%%%%%%%%%%%%%%%%%%%J%%%%%%%%J%%%%%%J%J%JJJ%%%%j%jj%jj%%%%%%j%j%%%%%J%j%%
503@%Jj%%%%%%%%%%%%%%%%%%%%%%%%%%%%%%J%j%%%%%%%%%%%%%%%%%%%%%%%%%%%%%%%%%%%%%%%%
424@%%%%%%%%%%%%%%%%%%%%%%%%%%%%%%%%%%%%%%%%%%%J%%%%%%j%%%%%%%%J%%%j%%%%Jj%%J%%%
345A%%%j%J%%%%%%j%%%%%%%%%%%%%%J%%%%j%Jj%%%%%%%%%%J%%%%%%%%%%%%%%%j%%%%%%%%%%J%%
266A%%J%%%%%%j%%%%%%%%%%%%%J%%%%%%%%%%%%j%%%%%%%%%%%%%%%%J%%%j%%J%%%%%%%j%%%%%J%
186B%%%%%%%%%%%%%j%%%%%%%%%%J%%%J%%%%j%J%%%%%%%%%%%%%%%%%%%%%%%J%%%%%%%%J%%%%%%%
107E%%%%%%%%%%J%j%%J%%%%%%J%J%j%JJ%%%%J%J%%%%JJ%J%%%JJJ%JJJJJJJKKLKLLLNNOPOPONMK
28I5%%JNQRJ1J3J6K0K4K8L1L6M4N3O5P4Q4R7J17J45J70J79J59J02J7p5j51j93j96j69j32r8p6
-8E13o4n9n2m6l8l4l2k9k5k0j5j0pool%%Kjknnonoommkkkkkkjjjjjk%%%%jj%jJj%j%%%Jj%j%%%
-74A%%j%%%%%%%%%J%%%%%%%%%%%%%j%%%%%%%%%%%Jj%%%%%%%j%J%%j%%%%%%%%%J%%j%%J%%%j%%%
-153aJ%%j%J%%%%%%%%%%%%%%%%%j%J%%j%J%%%%%%%%%j%%J%%%j%%J%%%jJ%%%%j%%J%%%%%%%j%%J
-231@%%%j%%J%%%%%%%%%%%%%%%%j%J%%%%%%J%%%J%%j%%%%%%%%%%%%%%j%%%%%%%%%%%%%%%%%%%%
-309@%%%%%%%%%%%%%%%%%%jJ%%%%%%%%%%%%%%%%%%%%%%%%%%%%%%%%%%%%%%%%%%%j%J%%%%%%%%%
-387@%%%%%%%%%%%%%%%%%%%%%%%%%%%%%%%%%%%%%%%j%J%%%%%%%%%%j%%J%%%%%%%%%%%%%%%jJ%%
-465@%%%%%%%%%%%%%%%%%%%%%%j%%%%%J%%%%%%%%J%%j%%%%J%%%%%%%%%%%%%%%%%J%%%J%J%J%JJ
-544GJ%%j%jj%jj%j%%%j%%%%%j%%J%%j%%%%%%%%%Jj%%j%J%J%j%%%%J%j%%%%%%%%%%%%%%%%%%%%
-622@%%%%%%%%%%j%%%J%%%%%%%%%%%%%%%%%%%%%%%%%%%%%%%%%%j%J%%%%%%%%%%%%%%%%%%%%%%%
-700@%%%%%%%%%%%%%%%%%%%%%%%%%%%%%%%%%%%%%%%%%%%%%%%%%%%%%%%%%%%J%%j%%%%%%%%%%%%
-778@%%%%%%%%%%%%%%%%J%%%j%%%%%%%%%%%%%%%%%%%%%%%%%%Jj%%%jJ%%%%%%%%%%%%%%%%%%%%%
-856@%%%J%%j%%%%%%%%%%%J%j%%%%%%%%%%%%%%%%%%%%%%%%%%%%%%%%%%%%%%%%%%%%%%%%%%%%%%
-934@Jj%%%%%%%%%%%%%%%%%%%%%J%%%j%%%%%%%%%%%%%%J%%j%%%%%%%%%%%%%%%%%%%%%%%%%%%%%
-1012@%%%%%%%J%%j%%%J%%j%%%%Jj%%%J%%j%%%%%%%%%%%%%%%%%%%%%%%%%%%%%%%%%%%%%%%%%%%
-1089@%%%%%%%%%%%%%%%%%%%%%%%%%%%%j%%%J%%%%%%%%J%j%%%%%%%%%%%J%j%%J%%j%%%%%%%%%%
-1166@%%%%%%%%%%%%%%%%%%%%%j%J%%%%%%%%%%%%%%%%%%%%%%%%%%%%%%%%%%%%%%%%%%%%%%%%%%
-1243@%%%%%%%%%%%%%%%%%%j%J%%%%%%%%%%%%%%%J%%j%%%%%%%%%%%%%%%%%%%%%%%%%%%%%%%%%%
-1320@%%%%%%%%%%%%%%%%%J%j%%J%%%%%j%%%%%%%%%%%%%%%%%%%%%%%%%%%%%%%%%Jj%%%%%%%%%j
-1398a%%J%%%%%%%%%%%%%%%%J%%%j%%%%%%%%%%%%%%%%j%%J%%%%%j%J%%%%%%%%%%%%%%%%%%%%%%
-1475@%%%%%%%%%%%%%%%%%%%%%%%%%%%%%%%%%%j%%%%J%%%%%%%J%%j%%%%%%%%%%%%%%%%%%%%%%%
-1552@%%%%%%%%%%%%%%%%%%%%%%%%%%%%%%%%%%%%%%%%%%%%%%%%%%%%%%%%%%%%%%%%%%%%%%%j%%
-1629a%%J%%jJ%%%%%j%J%%%%%%%%%%%%%%%%%%%%%%%%%%%%%%J%%j%%%%%%%%j%J%%%%%%%%%%%%%%
-1706@%%%%%%%%%%%%%%%%%%%%J%%j%%%%%J%%j%%%%%%%%%%%%%%%%%%%%%%%%%%%%%j%%%J%%%%%%%
-1783@%%%%%%%%%%%%%%%%%%%%%%%%%%J%%%%%%j%%%%%%%%%%%%%%%%%%%%%%%%%%%%%%%%%%%%%%%%
-1860@%%%%%%%%%%%%%%%%J%%j%%%%%%%%%%%%%%%%%%%%%%%%%%%%%%%%%%%%%%%%%%%%J%%%%%j%%%
-1937@%%%%%%%%%%%%%%%%%%%%%%%%J%%j%%%%%%%%%%%%%%%J%%%j%%%%%%%%%%%%%%%%%jJ%%%%%%%
-2014@%%%%%%%%%%%%%%%%%%%%%%%%%%%%jJ%%%%%%%%%%%%%%%%%%%%%%%%%%%%%J%%j%%%%%%%%%%%
-2091@%%%%%%%%%%%%%%%%%%%%%%%%%%%%%%%%%%%%%%%%%%%%%%%%%%%%%%%%%%%%%%%%%%%%%%%%%%
-2168@%%%%%%%%%j%J%%%%%%%%j%J%%%%%%%%%%%%%%%Jj%%%%%%%%%%%%%%%%%%%%%%%%%%%%%%%%%%
-2245@%%%%%%%%%%%%%%%%%Jj%J%%%j%%%%%%%%%%%%%%%%%%%%%%%%%%%%%%%%%%%%%%%%%%%%%%%%%
-2322@%%%%%%%%%%%j%J%%%%%%%%%%%%%%%%%%%%%%%%%%%%%%%%%%%%%%J%j%%%%%%%%%%j%J%%%%%%
-2399@%%%%%%%%%%%%%%%%%%%%%%%%%%%%%%%%%%%%%%%%%%%%%%%%%%%%%%%%%%%%%%%%%%%%%%%%%%
-2476@%%%%%%%%%%%%%%%%%%%%%%%%%%%%%%%%%%%%%%%%%%%%%%%%%%%%%%%%%%%%J%j%%%%%%%%%%%
-2553@%%%%%%%%%j%J%%%%%%%%%%%%%%%%%%j%%%J%%%%%%%%%%%%%%%%%%%%%%%%%%%%%%%%%%%%%%%
-2631@%%%%%%%%%%%%%Jj%%%%%%%%%%%%%%%%%%%%%%%%J%%%%j%%%%%%%%%%%%%%%%%%%%%%%%%%%%%
-2708@%%%%%%%%%%%%%%%%%%%%%%%%%%%%%%%%%%%%%%%%%%%%%j%J%%%%%%%%%%%%%%%%%%%%%%%%%%
-2785@%%%J%j%%%j%%J%%%%%%%%%%%%%%%%%%%%%%%%%%%%%J%j%%%%%%%%%%%%%%%%%%%%%%%%%%%%%
-2862@%%%%%%%%%%%%%%j%J%%%%j%J%%%%%%%%%%%%%%%%%%%%%%%%%%%%%%%%%%%%%%%%%%%%%%%%%%
-2939@%%%%%%%%%%j%%%J%%%%%%%%%%%%%%%%%%%%%%%%%%%%%%%%J%j%%%%%%%%%%%%%%%%%%%%%%%%
-3016@%%%%%%%%%%%%%%%%%%%%%%%%%%%%%%%%%%%%%%%%%%%%%%%%%%%%%%%%%%%%%%%%%%%%%%%%%%
-3093@%%%%%%%%%%%%%%%%%%%%%%%%%%%%%%%%%%%%%jJ%%%j%%%J%%%%%%%%%%%%%%%%%%%%%%%%%%%
-3170@%%%%%%%%%%%%%%%%%%%%%%%%%%%%%%%%%%%%%%%%%%%%%%%%%%%%%%%%%%%%%%%%%%%%%%%%%%
-3247@%%%%%%%%%%%%%%%%%%%%%%%%%%%%%J%%j%%%%%%%%%%%%%%jJ%%%%%%%%%%%%%%%%%%%%%%%%%
-3324@%%%J%j%%%%%%%%%%%%%%%%%%%%%%%%%%%%%%%%%%%%%%%%%%j%%J%%%%%%%%%%%%%%%%%%%%%%
-3401@%%jJ%%%%%%%%%%%%%%%%%%%%%%%%%%%%j%%J%%%%j%J%%%%%%%%%%%%%%%%%%%%%%%%j%%%J%%
-3478@%%%%%%%%%%%%%%%%%%%%%%%%%%%%%%%%%%j%%%J%%%%%%%%%%%%%%%%%%%J%j%%%%%%%%%%%%%
-3555@%%%%%%%%%%%%%%%%%%%%%%%%%%%%%%%%%%%%%J%j%%%%%%%%%%%%%%%%%%%%%%%%%%%%%%%%%%
-3632@%%%%%%%%%%%%%%%%%%%%%%%%%%%%%%%%%%%%%%%%%%%%%%%%%%%%%%%%%%%%%%%%%%%%%%%%%%
-3709@%%%%%%%%%%%%Jj%%%%%%%%%%%%%%%%%%%%%%%%%%%%%%%%%%%%%%%%%%%%%%%%%%%%%%%%%%%%
-3786@%%%%%%%%%%%%%%%%%%%%%%%%%j%%J%%%%%%%%%%%%%%J%%%j%%%%%%%%%%%%%%%%%%%%%%%%%%
-3864@%%%%%%%%%%%%%%%%%%%%%%%%%%%%%%%%%%%%%%%Jj%%%%jJ%%%%%%%%%%%%%%%%%%%%%%%%%%j
-3941a%%J%%%%%%%%%%%%%%%%%%%%%%%%%J%%j%%%%%%%%%%%%%%%%%%%%%%%%%%%%%%%%%%%%%%%%%%
-4018@%%%%%%%%%%%%%%%%%%%%%%%%%%%%%%%%%%%%%%%%%%%%%%%%%%%%%%%%%%%%%%%%%%%%%%%%%%
-4095@%%%%%%J%%%%j%%%%%%%%%%%%%%%%%%%%%%%%%%%%%%%%%%%j%J%%%%%%%%%%%%%%%%%%%J%%%%
-4172Aj%%%%%%%%%%%%%%%%%%%%%%%%%%%%%%%%%%%%%%%%%%%%j%J%%%%%%%j%%%%%%J%%%%%%%%%%%
-4249@%%%%%%%%%%%%%%%%%%%%%%%%%%%j%J%%%%%%%%%%%%%%%%%%%%%%%%%%%%%%%%%%%%%%%%%%%%
-4326@%%%%%%%%%%%%%%%%%%%%%%%%%%%%%%%%%%%%%%%%J%%j%%%%%%%%%%J%%j%%%%%%%%%jJ%%%%%
-4403@%%%%%%%%%%J%%%%%j%%%%%%%%%%%%%%%%%J%%j%%%%%%%%%%%%%%%%%%%%%%%%%%%%%%%%%%%%
-4480@%%%%%%%%%%%%%%%%%%%%%%%%%%%%%%%%%%%%%%%%%%%%%%%%%%%%%%%j%J%%%%%%%%%%%%%%%%
-4557@%%%%%%%%%%%%%%%%%%%%%%%%%%%%%%%%%%%%%%%%%%%%%%%%%%%%%J%%%%%%j%%%%%%%%%%%%%
-4634@%%%%%%%%%%%%%%%%%%%%%%%%%%%%%%%%%%%%%%%%%%%%%%%%%%%%%%%%%%%%%%%%%%%%%%%%%J
-4711A%j%%%%%%%%%%%%%%%%%%%%%%%%%%%%%%%%%%%%%%%%%%%%%%%%%%%%%%%%%%%%%%%%%%%%%%%%
-4788@%%%%%%%%%%%%%%%%%%%%%%%%%%%%%%%%%%%%%%%%%%%%%%%%%%%%%%%%%%%%%%%%%%%%%%%%%%
-4865@%%%%%%%%%%%%%%%%j%%%%%J%%%%%%%%%%%jJ%%%%%%%%%%%%%%%%%%%%%%%j%J%%%%%%%%%%%%
-4942@%%%%%%%%%%%%%%%%%%%%%%%%%%%%%%%%%%%%%%%%%%%%%%%%J%j%%%%%%%%%j%%J%%%%%%%%%%
-5019@%%%%%%%%%%%%%%%%%%%%%%%%%%%%%%%%%%%%%%%%%%%%%%%%%%%%%%%%%%%%%%%%%%%%%%%%%%
-5097@%%%%%%%%%%%%%%%%%%%%%%%%%%%%%%%%%%%%%%%%%%%%%%%j%%J%%%%%%%%%%%%%%%%%%%%%%%
-5174@%%%%%%%%%%%%%%%%%%%%%%%%%%%%%j%%J%%%%%%%%%%%%%%%%%%%%%%%%%%%%%%%%%%%%%%%%%
-5251@%%%%%%%%%%%%%%%%%%%%%%%%%%%%%%%%%%%%%%%%%%%%%%%%%%%%%%%%%%%%%%%%%%%%Jj%%%%
-5328@%%%%%%%%%%%%%%%%%%%%%%%%%%%%%%%%%%%%%%%%%%%%%%%%%%%%%%%%%%%%%%%%%%%%%%%%%%
-5405@%%%%%%%%%%%%%%%%%%%%%%%%%%%%%%%%%%%%%%%%%%%%%%%%%%%%%%%j%%J%%%%%%%Jj%%j%%J
-5482@%%%%%%%%%%%%%%%%%%%%%%%%%%%%%%%%%%%%%%%%%%%%%%%%%%%%%%%%%%%%%%%%%%%%%%%%j%
-5559a%J%%%%%%j%%%%J%%%%%%%%%%%%%%%%J%j%%%%%%%%%%%%%%%j%%J%%%%%%%%%%%j%%%%%J%%%%
-5636@%%%%%%%%%%%%%%%%%%%%%%%%%%%%%%%%%%%%%%%%%%%%%%%%%%%%%%%%%%%%%%%%%%%%%%%%%%
-5713@%%%%%%%%%%%%%%%%%%%%%%%%%%%%%%%%%%%%%%%%%%%%%%%%%%%%%%%%%%%%%%%%%%%%%%%%%%
-5790@%%%%%j%%J%%%%%%%%%%%%%%%%%%%%%%%%%%%%%%%%%%%%%%%%%%%%%%%%%%%%%%%%j%J%%%%%%
-5867@%%%J%%%%j%%J%j%%%%%%%%%%%%%%%%%%%%%%%%%%%%%%%%j%J%%%%%%%%%%%%%%%%%%%%%%%%%
-5944@%%%Jj%%%%%%J%%j%%%%%%%%%%%%%%%%%%jJ%%%%%%%%%%%%%%%%%%%%%%Jj%%%%%%%%%%%%%%%
-6021@%%%%%%%%%%%%%%%%j%%%J%%%%%%%%%%%jJ%%%%%%j%%%J%%%%%%%%%%%%%%%%%%%%j%%J%%%%%
-6098@%%%%%j%%%J%%%%%%%%%%%%%%%%%%%%%%%%%%%%%%%%%%%%%%%%j%%%%J%%%%%%%%%%%%%%%%%%
-6175@%%%%%%%%%%%%%%%%%%%%%%%J%j%%%%%%%%%%%%%%%%%%%%%%%%%%%%%%%%%%%%%%%%%%%%%%%%
-6252@%%%%%%%%%%%%%%%%%%%%%%%%%%%%%%%%%%%%%%%%%%%%%%%%%%%%%%%%%%%%%%%%%%%%%%%%%%
-6330@%%%%%%%%%%%%%%J%%j%%%%%%%%%%%%%%%%%%%%%%%%%%%%%%%%%%%%%%%%%%%%%%%%%%%%%%%%
-6407@%%%%%%%%%%%%%%%%%%%%%%%%%%%%%%%%%%%%%%%%%%%%%%%%%%%j%J%%%%%%%%J%j%%%%%%%%%
-6484@%%%%%%%%%%%%%%%%%%%%%%%%%%%%%%%%%%%%%%%%%%%%%%%%%%%%%%%%%%%%%%%%%%%%%%%%%%
-6561@%%%%%j%%J%%%%%%%%%%%%%%%%%%%%%%%%%%%%%%%%%%%%%%%%%%%%%%%%%%%%%%%%%%%%%%%%%
-6638@%%%%%%J%%j%%%%%%%%%%%%%%%%%%%%%%%%%%%%%%%%%%%%%%%%%%%%%%%%%%%%%%%%%%%%%%%%
-6715@%%%%%%%%%%%%%Jj%%%%%%%%%%%%%%%%%%%%%%%%%%%%%j%J%%%%%%%%%%%%%%%%%%%%%%%%%%%
-6792@%%%%%%%%%%%%%%%%%%%%%j%%%%J%%%%%%%%%%%%%%%%%%%%%%%%%%%%%%%%%%%%%%%%%%%%%%%
-6869@%%%%%%%%%%%%%%%%%%%%%%%%%%%J%%%j%%%%%%%%%%%%%%%%%%%j%%%%J%%%%%%%%%%%%%%%%%
-6946@%%%%%%%%%%%%%%%%%%%%%%%%%%%%%%%%Jj%%%%%%%%%%%%%%%%%%%%%%%%%%%%%%%%%%%%%%%%
-7023@%%%%%%%%%%%%%%%%%%%%%%%%%%%%%%%%%%%%%%%%%%j%J%%%%%%%%%%%%%%%%%%%%%%%%%%%%%
-7100@%%%%%%%%%%%%%%%%%%%%%%%%%%%%%%%%%%%%%%%%%%%%%%%%%%%%%%%%%%%%%%%%%%%%%%%%%%
-7177@%%%%%%%%%%%%%%%%%%%%%%%%%%%%%%%%%%%%%%%%%%%%%%%%%%%%%%%%%%%%%%%%%%%%%%%%%%
-7254@%%%%%%%%%%%%%%%j%J%%%%%%%%%%%%%%%%%%%%%%%%%%%%%%%%%%%%%%%%J%j%%%%%%%%%%%%%
-7331@%%%%%%%%%%%%%%%%%%%%%%%%%%%%%%%%%%%%%%%%%%%%%%%%%%%%%%%%%%%%%%%%%%%%%%%%%%
-7408@%%%%%%%%%%%%%%%%%%%%%%%jJ%%%%%%%%%%%%%%%%%%%%%%%%%%%%%%%%%%%%%%%%%%%%%%%%%
-7485@%%%%%%%%%%%%%%%%%%%%%%%%%%%%%%%%%%%%jJ%j%%%%%%J%%j%%J%%%%%%%%%%%%%%%%%%%%%
-7563@%%%%%%%%%%%%%%%J%%j%%%%%%%%%%%%%%%%%%%%%%%%%%j%%J%%%%%%%%%%%%%%Jj%%%%%%%%%
-7640@%%%%%%%%%%%%%%%%%%%%%%%%%%%%%%%%%%%%%%%%%%%%%%%%%%%%%%%%%%%%%%%%%%%%%%%%%%
-7717@%%%%%%%%%%%%%%%%%%%%%%%%%%%%%%j%J%%%%%%%%%%j%%J%%%%%%%%%%%%%%%%%%%%%%%%%%%
-7794@%%%%%J%j%%%%%%%%%%%%%%%%%%%%%%%%%%%%%%%Jj%%%%%%%%%%%%%%%%%%%%%%%%%%%%%%%%%
-7871@%%%%%%%%%%%%%%%%%%%%%%%%%%J%%j%%%%%%%%%%%%%%%%%%%%%%%%%%%%%%%%%%%%%%%%%%%%
-7948@%%%%%%%%%%%%%%%%%%%%%%%%%%%%%%%%%%%%%%%%%%%%%%%%J%%j%%%%%%%%%%%%%%%%%%%%%%
-8025@%%%%%%%%%%%%%%%%%%%%%%%%%%%%%%%%%%%%%%%%%%%%%%%%%%%%%%%%%%%%%%%%%%%%%%%%%%
-8102@%%%%%%%%%%%%%%%%%%%%%%%%%%%%%%%%%%%%%%%%%%%%%%%%%%%%%%%%%%%%%%%%%%%%%%%%%%
-8179@%%%%%%%%%%%%%%%j%%%%J%%%%%j%J%%%%%%%%%%%%%%%%%%%%%%%%%%%%%%%%%%%%%%%%%%%%%
-8256@%%%%%%%%%%%%%%%%jJ%%%%%%%%j%J%%%%%%%%%%%%%%%%%%%%%%%%%%%%%%%%j%%J%%%%%%%%%
-8333@%%%%%%%%%%%%%%%%%%%%J%%j%%%%%%%%%%%%%%%%%%%%%%%%%%%%%%%%%%%%%%%%%%%%%%%%%%
-8410@%%%%%%%%%%%%%%%%%%%%%%%%%%%%%%%%%%%%%%%%%%%%%%%%%%%%j%%J%%%%%%%%%%%J%%%j%%
-8487@%%%%%%%%%%%%%%%%%%%%%%%%%%%%%%%%%%%j%%%J%%%%%j%%%J%%%%%%%%Jj%%%%%%%%%%%%%%
-8564@%%%%%%%%%%%J%%j%%%%%%%%%%%%%%%%%%%%%%%%%%%%%%%%%%%%%%%%%%%%%%%%%%%%%%%%%%%
-8641@%%%%%%%%%%%%%%%%%%%%%%%%%%%%%%%%%%%%%%%%%%%%%%%%%%%%%%%%%%%%%%%%%%%%%%%%%%
-8718@%%%%%%%%%%%%%%%%%%%%%%%%%%%%%%%%%%%%%%%%%%%%%%%%jJ%%%%%%%%%%%%%%%%%%%%%%%%
-8796@%%%%%%%%%%J%%%j%%%%%%%%%%jJ%%%%%%%%%%%%%%%%%%%%%%J%%j%%%%%%%%%%%%%%%%%%%%%
-8873@%%%%%%%%%%%%%%%%%Jj%%%%%%%%%%%%%%%%%%J%%%j%%%%%%%%%%%%%%%%%%%%%%%%%%%%%%%%
-8950@%%%%%%%%%%%%%%%%%%%%%%%%%%%%%%%%%j%J%%%%%%%%%%%%%%%%%j%%%J%%%%%%%%%%%%%%%%
-9027@%%%%%%%%%%%%%%%%%%%%%%%%%%%%%%%%%%%%%%%%%%%%%%%%%%%%%%%%%%%%%%%%%%%%%%%%%%
-9104@%%%%%%%%%%J%%%%j%%%%%%J%j%%%%%%%%%%%%%%%%%%%%%%%%%%%%%%%%%%%%%%j%J%%%%%%%%
-9181@%%%%%%%%%%%%%%%%%%%%j%J%%%%%%%%%%%%%%%%%%%%%%%%%%%%%%%%%%%%%%%%%%%%%%%%%%%
-9258@%%%%J%j%%%%%%%%%%%%%%%%%%%%%%%%%%%%%%%%%%%%%%%%%%%%%%%J%%%j%%%%%%%%%%J%%j%
-9335@%%J%%j%%%%%%%%%%%%%%%%%%%%%%%%%%%%%%%%%%J%%%j%%%%%%%%%%%%%%%%%%%%%%%%%%%%%
-9412@%%%%%%%%%%%%%%%%%%%%%%%%%%%%%%%%%%%%%%%%%%%%%%%%%%%%%%J%j%%%%%%%%%%%%%%J%%
-9489Aj%%%%%%%%%%%%%%%%%%%%%%%%%%%%%%%%%%%%%%%%%%%%%%%%%%%%%%%%%%%%%%%%%%%%%%%%%
-9566@%%%%%%%%%%%%%%%%%%%%%%%%%%%%%%%%%%%%%%%%%%%%%%%%%%%%%%%%%%%%%%%%%%j%J%%%%%
-9643@%%%%%%%%%j%%%%%J%%%%%%%%%%%%%%%%%%%%%%%%%%%%%%%%%%%Jj%%%%%%%%%%%%%%%%%%%%%
-9720@%%%%%%%%%%%%%%%%%%%%%%%%%%%%%%%%%%%%%%%%J%j%%%%%%%%%%%%%%%%%%%%%%%%%%%%%%%
-9797@%%%%%%%%%%%%%%%%%%%%%%%%%%%%%%%j%%J%%%%%%%%%%%%%%%%%%%%%%%%%%%%%%%%%%%%%%%
-9874@%%%%%%%%%%%%%%%%%%%%%%%%%%%%%%%%%%%%%%%%%%%%%J%%j%%%%%%%%%%%%%%%%%%%%%%%J%
-9951A%%%j%%%%%%%%%Jj%%%%%%%%%%%%%%%%%%%%%%%%%%%%%%%%%%%%%%%%%%%%%%%%%%%%%jJ%%%%
-10029@%%%%%%%%%%%%%%%%%%%%%%%%%%%%%%%%%%%%%%%%%%%%%%%%%%%%%%%%%%%%%%%%%%%%%%j%J
-10105@%%%%%%%%%%%%%%%%%%%%%%%%%%%%%%%%%%%%%%%%%%%%%%%%%%%%%%%%%%%%jJ%%%%%%%%%%%
-10181@%%%%%%%%%%%%%%%%%%%%%%%%%%jJ%%%%%%%%%%%%%%%%%%%%%%%%%%%%%%%%%%%%%%%%%%%%%
-10257@%%%%%%%%%%%%%%%%%%%%%%%%%%%%%%%%%%%%%%%%%%%%%%%%%%%%%%%%%%%%%%%%Jj%%%%%%%
-10333@%%%%%%%%%%%%%%%%%%%%%%%%%%%%%%%%%%%%%%%%%%%%%%%%%%%%%%%%%%%%%%%%%%%%%%%%%
-10409@%%%%%%%%%%%%%%%J%%j%J%%%%j%%%%%%%%%%%%%%%%%%%%%%%%%%%%%%%%%%%%%%%%%%%%%%%
-10485@%%%%%%%%%%%%%%%%%%%%%%%%%%%%%%%%%%%%%%%%%%%%%%%%%%%%%%%%%%%%%%%%%%%%%%%%%
-10561@%%%j%J%%%%%%%%%%%%%%%%%%%%%%%%%%%%%%%%%%%%%%jJ%%%%%%%%%%%%%%%%%%%%%%%%%%%
-10637@%%%%%%%%%%%%%%%%%%%%%%%%%%%%%%%%%%%%%%j%%J%%%%%%%%%%%%%%%%%%%%%%%%%%%%%%%
-10713@%%%%%%%%%%%%%%%%%%%%%%%%Jj%%%J%%j%%%%%%%%%%%%%%%%%%%%%%%%%%%%%%%%%%%%%%%%
-10789@%%%%%%%%%%%%%%%%%%%%%%Jj%%%%%%%%%%%%%%%%%%%%%%%%%%%%%%%%%%%%%%%%%%%%%%%%%
-10865@%%%%%%%%%%%%%%%%%%%%%%%%%%%%%%%%%%%%%%%%%%%%%%%%%%%%%%%%%%%%%%%%%J%j%%%%%
-10941@%%%%%%%%%%%%%%%%%%%%%%%%%%%%%%%%%%%%%%%%%%%%%%%j%%J%%%J%j%%%%%%%%%%%%%%%%
-11017@%%%%%%%%%%%%%%%%%%%%%%%%%%%%%%%%%%%%%%%%%%%%%%%%%%%%%%%%%%%%%%%%%%%%%%%%%
-11093@%%%%%%%%%%%%%%%%%%%%%%%%%%%%%%%%%%%%%%%%%%%%%%%%%%%%%%%%%%%%%J%%j%%%%%%%%
-11169@%%%%%%%%%%%%%%%%%%%%%%%%j%J%%%%%%%%%%%%%%%%%%%%%%%%%%%%%%%%%%%%%%%%%%%%%%
-11245@%%%%%%%%%%%%%%%%%%%%%%%%%%%%%%%%%%%%%%%%%%%%%%%%%%%%%%%%%%%%%%%%%%%%%%%%%
-11321@%%%%%%%%%%J%%j%%%%%%%%%%%%%%%%%%%%%%%%%%%%%%%%%%%%%%%%%%%%%%%%%%%%%%%%%%%
-11397@%j%%%J%%%%%%%%%%%%%%%%%%%%%%%%%%%%%%%%%%%%%%%%%%%%%%%%%%%%%%%%%%%%%%%%%%%
-11473@%%%%%%%%J%j%%%%%%%%%%%%%%%%%%%%%%%%%%%%%%%%%%%%%%%%%J%%j%%%%%%%%%%%%%%%%%
-11549@%%%%%%%%%%%%%%%%%%%%%%%%%%%%%%%%%%%%%%%%%%%%%%%%%%%%%%%%%%%%%%%%%%%%%%%%%
-11625@%%%%%%%%%%%%%%%%%%%%%%%%%%%%%%%%%%%%%%%%%%%%%%%%%%%%%%%%%%%%%%%%%%%%%%%%%
-11701@%%%%%%%%%%%%%%%%%%%%%%%%%%%%%j%J%%%%%%%%%%%J%j%%%%%%%%%%%%%%%%%%%%%%%%%%%
-11777@%%%%%J%j%%%%%J%%%j%%%%%%%%%%%%%%%%%%%%%j%%%J%%%%%%%%%%%%%%%%%%%%%%%%%%%%%
-11853@%%%%%%%%%%%%%%%%%%%%%%%%%%%%%%%%%%%%%%%%%%%%%%%%%%%%%%%%%%%%%%%%%%%%%%%%%
-11929@%%%%%%%%%%%%%%%%%%%%%%%%%%%%%%%%%%%%%%%%%%%%%%%%%%%%%%%%%%%%%%%%%%%%%%%%%
-12005@%%%%%j%%J%%%%%%%%%%%%%%%%%%%%%%%%%%%%%%%%%%%%%%%%%%%%%%%%%%%%%%%%%%%%%%%%
-12081@%%%%%%%%%%%%%%%%%%%%%%%%%%%%%%%%%%%%%%%%%%j%J%%%%%%%%%%%%%%%%%%%%%%%%%%j%
-12157a%%%J%%%%%%%%%%%%%%%%%%%%%%%%%%%%%%%j%J%%%%%%%%%%%%%%%%%%%%%%%%%%%%%%%%%%%
-12233@%%%%%%%%%%%%%%%%%%%%%%%%%%%%%%%%%%%%%%%%%%%%%%%%%%%%%%%%%%%%%%%%%
-12301@ $$ checkpoint
##END=
##TITLE=Peak list
##JCAMP-DX=5.01
##ORIGIN=UNKNOWN
##OWNER=UNKNOWN
##DATA TYPE=NMR PEAK TABLE
##DATA CLASS=PEAK TABLE
##BLOCK_ID=3
##CROSS REFERENCE=NMR SPECTRUM:BLOCK_ID=2
##DATE=22/03/03
##TIME=15:04:29
##TEMPERATURE=25
##LONG DATE=2022/03/03 15:04:29 
##.OBSERVE FREQUENCY=500
##.OBSERVE NUCLEUS=1H
##.SOLVENT NAME=H2O
##NPOINTS=10
##XUNITS=PPM
##YUNITS=ARBITRARY UNITS
##PEAK TABLE=(XY..XY)
(1.459, 56013637080.00001)
(1.474, 57121800000.0)
(1.459, 56013637080.00001)
(1.474, 57121800000.0)
(1.459, 56013637080.00001)
(1.474, 57121800000.0)
(3.751, 10813156740.0)
(3.766, 34701493500.00001)
(3.78, 34787176200.00001)
(3.795, 11121614460.000002)
##END=
##TITLE=Assignments
##JCAMP-DX=5.01
##ORIGIN=UNKNOWN
##OWNER=UNKNOWN
##DATA TYPE=NMR PEAK ASSIGNMENTS
##DATA CLASS=PEAK ASSIGNMENTS
##BLOCK_ID=4
##CROSS REFERENCE=STRUCTURE:BLOCK_ID=1
##DATE=22/03/03
##TIME=15:04:29
##SAMPLE DESCRIPTION=L-alanine
##TEMPERATURE=25
##LONG DATE=2022/03/03 15:04:29 
##SOURCE REFERENCE=HMDB0000161
##.OBSERVE FREQUENCY=500
##.OBSERVE NUCLEUS=1H
##.SOLVENT NAME=H2O
##NPOINTS=10
##XUNITS=PPM
##PEAK ASSIGNMENTS=(XMA)
(1.47, <d>, <7>)
(1.47, <d>, <7>)
(1.47, <d>, <8>)
(1.47, <d>, <8>)
(1.47, <d>, <9>)
(1.47, <d>, <9>)
(3.77, <q>, <10>)
(3.77, <q>, <10>)
(3.77, <q>, <10>)
(3.77, <q>, <10>)
##END=
##END=
